&CONTROL
  calculation = 'nscf'
  prefix      = 'BN'
  verbosity   = 'high'
  disk_io     = 'low'
  tstress     = .true.
  tprnfor     = .true.
  outdir      = '../tmp/'
  pseudo_dir  = '../pseudo/'
/
&SYSTEM
  ibrav       = 4
  celldm(1)   = 4.7450452641
  celldm(3)   = 7.9650499455
  nat         = 2
  ntyp        = 2
  nbnd        = 16
  ecutwfc     = 120
  ecutrho     = 480
  occupations = 'fixed'
  assume_isolated = '2D'
/
&ELECTRONS
  conv_thr       = 1.d-13
  diago_full_acc = .true.
  diago_thr_init = 1.d-13
/
ATOMIC_SPECIES
  B  10.811  B.upf
  N  14.006  N.upf
ATOMIC_POSITIONS {crystal}
  B  0.3333333333  0.6666666667  0.0000000000
  N  0.6666666667  0.3333333333  0.0000000000
K_POINTS {crystal}
  576
  0.00000000  0.00000000  0.00000000  1.736111e-03
  0.00000000  0.04166667  0.00000000  1.736111e-03
  0.00000000  0.08333333  0.00000000  1.736111e-03
  0.00000000  0.12500000  0.00000000  1.736111e-03
  0.00000000  0.16666667  0.00000000  1.736111e-03
  0.00000000  0.20833333  0.00000000  1.736111e-03
  0.00000000  0.25000000  0.00000000  1.736111e-03
  0.00000000  0.29166667  0.00000000  1.736111e-03
  0.00000000  0.33333333  0.00000000  1.736111e-03
  0.00000000  0.37500000  0.00000000  1.736111e-03
  0.00000000  0.41666667  0.00000000  1.736111e-03
  0.00000000  0.45833333  0.00000000  1.736111e-03
  0.00000000  0.50000000  0.00000000  1.736111e-03
  0.00000000  0.54166667  0.00000000  1.736111e-03
  0.00000000  0.58333333  0.00000000  1.736111e-03
  0.00000000  0.62500000  0.00000000  1.736111e-03
  0.00000000  0.66666667  0.00000000  1.736111e-03
  0.00000000  0.70833333  0.00000000  1.736111e-03
  0.00000000  0.75000000  0.00000000  1.736111e-03
  0.00000000  0.79166667  0.00000000  1.736111e-03
  0.00000000  0.83333333  0.00000000  1.736111e-03
  0.00000000  0.87500000  0.00000000  1.736111e-03
  0.00000000  0.91666667  0.00000000  1.736111e-03
  0.00000000  0.95833333  0.00000000  1.736111e-03
  0.04166667  0.00000000  0.00000000  1.736111e-03
  0.04166667  0.04166667  0.00000000  1.736111e-03
  0.04166667  0.08333333  0.00000000  1.736111e-03
  0.04166667  0.12500000  0.00000000  1.736111e-03
  0.04166667  0.16666667  0.00000000  1.736111e-03
  0.04166667  0.20833333  0.00000000  1.736111e-03
  0.04166667  0.25000000  0.00000000  1.736111e-03
  0.04166667  0.29166667  0.00000000  1.736111e-03
  0.04166667  0.33333333  0.00000000  1.736111e-03
  0.04166667  0.37500000  0.00000000  1.736111e-03
  0.04166667  0.41666667  0.00000000  1.736111e-03
  0.04166667  0.45833333  0.00000000  1.736111e-03
  0.04166667  0.50000000  0.00000000  1.736111e-03
  0.04166667  0.54166667  0.00000000  1.736111e-03
  0.04166667  0.58333333  0.00000000  1.736111e-03
  0.04166667  0.62500000  0.00000000  1.736111e-03
  0.04166667  0.66666667  0.00000000  1.736111e-03
  0.04166667  0.70833333  0.00000000  1.736111e-03
  0.04166667  0.75000000  0.00000000  1.736111e-03
  0.04166667  0.79166667  0.00000000  1.736111e-03
  0.04166667  0.83333333  0.00000000  1.736111e-03
  0.04166667  0.87500000  0.00000000  1.736111e-03
  0.04166667  0.91666667  0.00000000  1.736111e-03
  0.04166667  0.95833333  0.00000000  1.736111e-03
  0.08333333  0.00000000  0.00000000  1.736111e-03
  0.08333333  0.04166667  0.00000000  1.736111e-03
  0.08333333  0.08333333  0.00000000  1.736111e-03
  0.08333333  0.12500000  0.00000000  1.736111e-03
  0.08333333  0.16666667  0.00000000  1.736111e-03
  0.08333333  0.20833333  0.00000000  1.736111e-03
  0.08333333  0.25000000  0.00000000  1.736111e-03
  0.08333333  0.29166667  0.00000000  1.736111e-03
  0.08333333  0.33333333  0.00000000  1.736111e-03
  0.08333333  0.37500000  0.00000000  1.736111e-03
  0.08333333  0.41666667  0.00000000  1.736111e-03
  0.08333333  0.45833333  0.00000000  1.736111e-03
  0.08333333  0.50000000  0.00000000  1.736111e-03
  0.08333333  0.54166667  0.00000000  1.736111e-03
  0.08333333  0.58333333  0.00000000  1.736111e-03
  0.08333333  0.62500000  0.00000000  1.736111e-03
  0.08333333  0.66666667  0.00000000  1.736111e-03
  0.08333333  0.70833333  0.00000000  1.736111e-03
  0.08333333  0.75000000  0.00000000  1.736111e-03
  0.08333333  0.79166667  0.00000000  1.736111e-03
  0.08333333  0.83333333  0.00000000  1.736111e-03
  0.08333333  0.87500000  0.00000000  1.736111e-03
  0.08333333  0.91666667  0.00000000  1.736111e-03
  0.08333333  0.95833333  0.00000000  1.736111e-03
  0.12500000  0.00000000  0.00000000  1.736111e-03
  0.12500000  0.04166667  0.00000000  1.736111e-03
  0.12500000  0.08333333  0.00000000  1.736111e-03
  0.12500000  0.12500000  0.00000000  1.736111e-03
  0.12500000  0.16666667  0.00000000  1.736111e-03
  0.12500000  0.20833333  0.00000000  1.736111e-03
  0.12500000  0.25000000  0.00000000  1.736111e-03
  0.12500000  0.29166667  0.00000000  1.736111e-03
  0.12500000  0.33333333  0.00000000  1.736111e-03
  0.12500000  0.37500000  0.00000000  1.736111e-03
  0.12500000  0.41666667  0.00000000  1.736111e-03
  0.12500000  0.45833333  0.00000000  1.736111e-03
  0.12500000  0.50000000  0.00000000  1.736111e-03
  0.12500000  0.54166667  0.00000000  1.736111e-03
  0.12500000  0.58333333  0.00000000  1.736111e-03
  0.12500000  0.62500000  0.00000000  1.736111e-03
  0.12500000  0.66666667  0.00000000  1.736111e-03
  0.12500000  0.70833333  0.00000000  1.736111e-03
  0.12500000  0.75000000  0.00000000  1.736111e-03
  0.12500000  0.79166667  0.00000000  1.736111e-03
  0.12500000  0.83333333  0.00000000  1.736111e-03
  0.12500000  0.87500000  0.00000000  1.736111e-03
  0.12500000  0.91666667  0.00000000  1.736111e-03
  0.12500000  0.95833333  0.00000000  1.736111e-03
  0.16666667  0.00000000  0.00000000  1.736111e-03
  0.16666667  0.04166667  0.00000000  1.736111e-03
  0.16666667  0.08333333  0.00000000  1.736111e-03
  0.16666667  0.12500000  0.00000000  1.736111e-03
  0.16666667  0.16666667  0.00000000  1.736111e-03
  0.16666667  0.20833333  0.00000000  1.736111e-03
  0.16666667  0.25000000  0.00000000  1.736111e-03
  0.16666667  0.29166667  0.00000000  1.736111e-03
  0.16666667  0.33333333  0.00000000  1.736111e-03
  0.16666667  0.37500000  0.00000000  1.736111e-03
  0.16666667  0.41666667  0.00000000  1.736111e-03
  0.16666667  0.45833333  0.00000000  1.736111e-03
  0.16666667  0.50000000  0.00000000  1.736111e-03
  0.16666667  0.54166667  0.00000000  1.736111e-03
  0.16666667  0.58333333  0.00000000  1.736111e-03
  0.16666667  0.62500000  0.00000000  1.736111e-03
  0.16666667  0.66666667  0.00000000  1.736111e-03
  0.16666667  0.70833333  0.00000000  1.736111e-03
  0.16666667  0.75000000  0.00000000  1.736111e-03
  0.16666667  0.79166667  0.00000000  1.736111e-03
  0.16666667  0.83333333  0.00000000  1.736111e-03
  0.16666667  0.87500000  0.00000000  1.736111e-03
  0.16666667  0.91666667  0.00000000  1.736111e-03
  0.16666667  0.95833333  0.00000000  1.736111e-03
  0.20833333  0.00000000  0.00000000  1.736111e-03
  0.20833333  0.04166667  0.00000000  1.736111e-03
  0.20833333  0.08333333  0.00000000  1.736111e-03
  0.20833333  0.12500000  0.00000000  1.736111e-03
  0.20833333  0.16666667  0.00000000  1.736111e-03
  0.20833333  0.20833333  0.00000000  1.736111e-03
  0.20833333  0.25000000  0.00000000  1.736111e-03
  0.20833333  0.29166667  0.00000000  1.736111e-03
  0.20833333  0.33333333  0.00000000  1.736111e-03
  0.20833333  0.37500000  0.00000000  1.736111e-03
  0.20833333  0.41666667  0.00000000  1.736111e-03
  0.20833333  0.45833333  0.00000000  1.736111e-03
  0.20833333  0.50000000  0.00000000  1.736111e-03
  0.20833333  0.54166667  0.00000000  1.736111e-03
  0.20833333  0.58333333  0.00000000  1.736111e-03
  0.20833333  0.62500000  0.00000000  1.736111e-03
  0.20833333  0.66666667  0.00000000  1.736111e-03
  0.20833333  0.70833333  0.00000000  1.736111e-03
  0.20833333  0.75000000  0.00000000  1.736111e-03
  0.20833333  0.79166667  0.00000000  1.736111e-03
  0.20833333  0.83333333  0.00000000  1.736111e-03
  0.20833333  0.87500000  0.00000000  1.736111e-03
  0.20833333  0.91666667  0.00000000  1.736111e-03
  0.20833333  0.95833333  0.00000000  1.736111e-03
  0.25000000  0.00000000  0.00000000  1.736111e-03
  0.25000000  0.04166667  0.00000000  1.736111e-03
  0.25000000  0.08333333  0.00000000  1.736111e-03
  0.25000000  0.12500000  0.00000000  1.736111e-03
  0.25000000  0.16666667  0.00000000  1.736111e-03
  0.25000000  0.20833333  0.00000000  1.736111e-03
  0.25000000  0.25000000  0.00000000  1.736111e-03
  0.25000000  0.29166667  0.00000000  1.736111e-03
  0.25000000  0.33333333  0.00000000  1.736111e-03
  0.25000000  0.37500000  0.00000000  1.736111e-03
  0.25000000  0.41666667  0.00000000  1.736111e-03
  0.25000000  0.45833333  0.00000000  1.736111e-03
  0.25000000  0.50000000  0.00000000  1.736111e-03
  0.25000000  0.54166667  0.00000000  1.736111e-03
  0.25000000  0.58333333  0.00000000  1.736111e-03
  0.25000000  0.62500000  0.00000000  1.736111e-03
  0.25000000  0.66666667  0.00000000  1.736111e-03
  0.25000000  0.70833333  0.00000000  1.736111e-03
  0.25000000  0.75000000  0.00000000  1.736111e-03
  0.25000000  0.79166667  0.00000000  1.736111e-03
  0.25000000  0.83333333  0.00000000  1.736111e-03
  0.25000000  0.87500000  0.00000000  1.736111e-03
  0.25000000  0.91666667  0.00000000  1.736111e-03
  0.25000000  0.95833333  0.00000000  1.736111e-03
  0.29166667  0.00000000  0.00000000  1.736111e-03
  0.29166667  0.04166667  0.00000000  1.736111e-03
  0.29166667  0.08333333  0.00000000  1.736111e-03
  0.29166667  0.12500000  0.00000000  1.736111e-03
  0.29166667  0.16666667  0.00000000  1.736111e-03
  0.29166667  0.20833333  0.00000000  1.736111e-03
  0.29166667  0.25000000  0.00000000  1.736111e-03
  0.29166667  0.29166667  0.00000000  1.736111e-03
  0.29166667  0.33333333  0.00000000  1.736111e-03
  0.29166667  0.37500000  0.00000000  1.736111e-03
  0.29166667  0.41666667  0.00000000  1.736111e-03
  0.29166667  0.45833333  0.00000000  1.736111e-03
  0.29166667  0.50000000  0.00000000  1.736111e-03
  0.29166667  0.54166667  0.00000000  1.736111e-03
  0.29166667  0.58333333  0.00000000  1.736111e-03
  0.29166667  0.62500000  0.00000000  1.736111e-03
  0.29166667  0.66666667  0.00000000  1.736111e-03
  0.29166667  0.70833333  0.00000000  1.736111e-03
  0.29166667  0.75000000  0.00000000  1.736111e-03
  0.29166667  0.79166667  0.00000000  1.736111e-03
  0.29166667  0.83333333  0.00000000  1.736111e-03
  0.29166667  0.87500000  0.00000000  1.736111e-03
  0.29166667  0.91666667  0.00000000  1.736111e-03
  0.29166667  0.95833333  0.00000000  1.736111e-03
  0.33333333  0.00000000  0.00000000  1.736111e-03
  0.33333333  0.04166667  0.00000000  1.736111e-03
  0.33333333  0.08333333  0.00000000  1.736111e-03
  0.33333333  0.12500000  0.00000000  1.736111e-03
  0.33333333  0.16666667  0.00000000  1.736111e-03
  0.33333333  0.20833333  0.00000000  1.736111e-03
  0.33333333  0.25000000  0.00000000  1.736111e-03
  0.33333333  0.29166667  0.00000000  1.736111e-03
  0.33333333  0.33333333  0.00000000  1.736111e-03
  0.33333333  0.37500000  0.00000000  1.736111e-03
  0.33333333  0.41666667  0.00000000  1.736111e-03
  0.33333333  0.45833333  0.00000000  1.736111e-03
  0.33333333  0.50000000  0.00000000  1.736111e-03
  0.33333333  0.54166667  0.00000000  1.736111e-03
  0.33333333  0.58333333  0.00000000  1.736111e-03
  0.33333333  0.62500000  0.00000000  1.736111e-03
  0.33333333  0.66666667  0.00000000  1.736111e-03
  0.33333333  0.70833333  0.00000000  1.736111e-03
  0.33333333  0.75000000  0.00000000  1.736111e-03
  0.33333333  0.79166667  0.00000000  1.736111e-03
  0.33333333  0.83333333  0.00000000  1.736111e-03
  0.33333333  0.87500000  0.00000000  1.736111e-03
  0.33333333  0.91666667  0.00000000  1.736111e-03
  0.33333333  0.95833333  0.00000000  1.736111e-03
  0.37500000  0.00000000  0.00000000  1.736111e-03
  0.37500000  0.04166667  0.00000000  1.736111e-03
  0.37500000  0.08333333  0.00000000  1.736111e-03
  0.37500000  0.12500000  0.00000000  1.736111e-03
  0.37500000  0.16666667  0.00000000  1.736111e-03
  0.37500000  0.20833333  0.00000000  1.736111e-03
  0.37500000  0.25000000  0.00000000  1.736111e-03
  0.37500000  0.29166667  0.00000000  1.736111e-03
  0.37500000  0.33333333  0.00000000  1.736111e-03
  0.37500000  0.37500000  0.00000000  1.736111e-03
  0.37500000  0.41666667  0.00000000  1.736111e-03
  0.37500000  0.45833333  0.00000000  1.736111e-03
  0.37500000  0.50000000  0.00000000  1.736111e-03
  0.37500000  0.54166667  0.00000000  1.736111e-03
  0.37500000  0.58333333  0.00000000  1.736111e-03
  0.37500000  0.62500000  0.00000000  1.736111e-03
  0.37500000  0.66666667  0.00000000  1.736111e-03
  0.37500000  0.70833333  0.00000000  1.736111e-03
  0.37500000  0.75000000  0.00000000  1.736111e-03
  0.37500000  0.79166667  0.00000000  1.736111e-03
  0.37500000  0.83333333  0.00000000  1.736111e-03
  0.37500000  0.87500000  0.00000000  1.736111e-03
  0.37500000  0.91666667  0.00000000  1.736111e-03
  0.37500000  0.95833333  0.00000000  1.736111e-03
  0.41666667  0.00000000  0.00000000  1.736111e-03
  0.41666667  0.04166667  0.00000000  1.736111e-03
  0.41666667  0.08333333  0.00000000  1.736111e-03
  0.41666667  0.12500000  0.00000000  1.736111e-03
  0.41666667  0.16666667  0.00000000  1.736111e-03
  0.41666667  0.20833333  0.00000000  1.736111e-03
  0.41666667  0.25000000  0.00000000  1.736111e-03
  0.41666667  0.29166667  0.00000000  1.736111e-03
  0.41666667  0.33333333  0.00000000  1.736111e-03
  0.41666667  0.37500000  0.00000000  1.736111e-03
  0.41666667  0.41666667  0.00000000  1.736111e-03
  0.41666667  0.45833333  0.00000000  1.736111e-03
  0.41666667  0.50000000  0.00000000  1.736111e-03
  0.41666667  0.54166667  0.00000000  1.736111e-03
  0.41666667  0.58333333  0.00000000  1.736111e-03
  0.41666667  0.62500000  0.00000000  1.736111e-03
  0.41666667  0.66666667  0.00000000  1.736111e-03
  0.41666667  0.70833333  0.00000000  1.736111e-03
  0.41666667  0.75000000  0.00000000  1.736111e-03
  0.41666667  0.79166667  0.00000000  1.736111e-03
  0.41666667  0.83333333  0.00000000  1.736111e-03
  0.41666667  0.87500000  0.00000000  1.736111e-03
  0.41666667  0.91666667  0.00000000  1.736111e-03
  0.41666667  0.95833333  0.00000000  1.736111e-03
  0.45833333  0.00000000  0.00000000  1.736111e-03
  0.45833333  0.04166667  0.00000000  1.736111e-03
  0.45833333  0.08333333  0.00000000  1.736111e-03
  0.45833333  0.12500000  0.00000000  1.736111e-03
  0.45833333  0.16666667  0.00000000  1.736111e-03
  0.45833333  0.20833333  0.00000000  1.736111e-03
  0.45833333  0.25000000  0.00000000  1.736111e-03
  0.45833333  0.29166667  0.00000000  1.736111e-03
  0.45833333  0.33333333  0.00000000  1.736111e-03
  0.45833333  0.37500000  0.00000000  1.736111e-03
  0.45833333  0.41666667  0.00000000  1.736111e-03
  0.45833333  0.45833333  0.00000000  1.736111e-03
  0.45833333  0.50000000  0.00000000  1.736111e-03
  0.45833333  0.54166667  0.00000000  1.736111e-03
  0.45833333  0.58333333  0.00000000  1.736111e-03
  0.45833333  0.62500000  0.00000000  1.736111e-03
  0.45833333  0.66666667  0.00000000  1.736111e-03
  0.45833333  0.70833333  0.00000000  1.736111e-03
  0.45833333  0.75000000  0.00000000  1.736111e-03
  0.45833333  0.79166667  0.00000000  1.736111e-03
  0.45833333  0.83333333  0.00000000  1.736111e-03
  0.45833333  0.87500000  0.00000000  1.736111e-03
  0.45833333  0.91666667  0.00000000  1.736111e-03
  0.45833333  0.95833333  0.00000000  1.736111e-03
  0.50000000  0.00000000  0.00000000  1.736111e-03
  0.50000000  0.04166667  0.00000000  1.736111e-03
  0.50000000  0.08333333  0.00000000  1.736111e-03
  0.50000000  0.12500000  0.00000000  1.736111e-03
  0.50000000  0.16666667  0.00000000  1.736111e-03
  0.50000000  0.20833333  0.00000000  1.736111e-03
  0.50000000  0.25000000  0.00000000  1.736111e-03
  0.50000000  0.29166667  0.00000000  1.736111e-03
  0.50000000  0.33333333  0.00000000  1.736111e-03
  0.50000000  0.37500000  0.00000000  1.736111e-03
  0.50000000  0.41666667  0.00000000  1.736111e-03
  0.50000000  0.45833333  0.00000000  1.736111e-03
  0.50000000  0.50000000  0.00000000  1.736111e-03
  0.50000000  0.54166667  0.00000000  1.736111e-03
  0.50000000  0.58333333  0.00000000  1.736111e-03
  0.50000000  0.62500000  0.00000000  1.736111e-03
  0.50000000  0.66666667  0.00000000  1.736111e-03
  0.50000000  0.70833333  0.00000000  1.736111e-03
  0.50000000  0.75000000  0.00000000  1.736111e-03
  0.50000000  0.79166667  0.00000000  1.736111e-03
  0.50000000  0.83333333  0.00000000  1.736111e-03
  0.50000000  0.87500000  0.00000000  1.736111e-03
  0.50000000  0.91666667  0.00000000  1.736111e-03
  0.50000000  0.95833333  0.00000000  1.736111e-03
  0.54166667  0.00000000  0.00000000  1.736111e-03
  0.54166667  0.04166667  0.00000000  1.736111e-03
  0.54166667  0.08333333  0.00000000  1.736111e-03
  0.54166667  0.12500000  0.00000000  1.736111e-03
  0.54166667  0.16666667  0.00000000  1.736111e-03
  0.54166667  0.20833333  0.00000000  1.736111e-03
  0.54166667  0.25000000  0.00000000  1.736111e-03
  0.54166667  0.29166667  0.00000000  1.736111e-03
  0.54166667  0.33333333  0.00000000  1.736111e-03
  0.54166667  0.37500000  0.00000000  1.736111e-03
  0.54166667  0.41666667  0.00000000  1.736111e-03
  0.54166667  0.45833333  0.00000000  1.736111e-03
  0.54166667  0.50000000  0.00000000  1.736111e-03
  0.54166667  0.54166667  0.00000000  1.736111e-03
  0.54166667  0.58333333  0.00000000  1.736111e-03
  0.54166667  0.62500000  0.00000000  1.736111e-03
  0.54166667  0.66666667  0.00000000  1.736111e-03
  0.54166667  0.70833333  0.00000000  1.736111e-03
  0.54166667  0.75000000  0.00000000  1.736111e-03
  0.54166667  0.79166667  0.00000000  1.736111e-03
  0.54166667  0.83333333  0.00000000  1.736111e-03
  0.54166667  0.87500000  0.00000000  1.736111e-03
  0.54166667  0.91666667  0.00000000  1.736111e-03
  0.54166667  0.95833333  0.00000000  1.736111e-03
  0.58333333  0.00000000  0.00000000  1.736111e-03
  0.58333333  0.04166667  0.00000000  1.736111e-03
  0.58333333  0.08333333  0.00000000  1.736111e-03
  0.58333333  0.12500000  0.00000000  1.736111e-03
  0.58333333  0.16666667  0.00000000  1.736111e-03
  0.58333333  0.20833333  0.00000000  1.736111e-03
  0.58333333  0.25000000  0.00000000  1.736111e-03
  0.58333333  0.29166667  0.00000000  1.736111e-03
  0.58333333  0.33333333  0.00000000  1.736111e-03
  0.58333333  0.37500000  0.00000000  1.736111e-03
  0.58333333  0.41666667  0.00000000  1.736111e-03
  0.58333333  0.45833333  0.00000000  1.736111e-03
  0.58333333  0.50000000  0.00000000  1.736111e-03
  0.58333333  0.54166667  0.00000000  1.736111e-03
  0.58333333  0.58333333  0.00000000  1.736111e-03
  0.58333333  0.62500000  0.00000000  1.736111e-03
  0.58333333  0.66666667  0.00000000  1.736111e-03
  0.58333333  0.70833333  0.00000000  1.736111e-03
  0.58333333  0.75000000  0.00000000  1.736111e-03
  0.58333333  0.79166667  0.00000000  1.736111e-03
  0.58333333  0.83333333  0.00000000  1.736111e-03
  0.58333333  0.87500000  0.00000000  1.736111e-03
  0.58333333  0.91666667  0.00000000  1.736111e-03
  0.58333333  0.95833333  0.00000000  1.736111e-03
  0.62500000  0.00000000  0.00000000  1.736111e-03
  0.62500000  0.04166667  0.00000000  1.736111e-03
  0.62500000  0.08333333  0.00000000  1.736111e-03
  0.62500000  0.12500000  0.00000000  1.736111e-03
  0.62500000  0.16666667  0.00000000  1.736111e-03
  0.62500000  0.20833333  0.00000000  1.736111e-03
  0.62500000  0.25000000  0.00000000  1.736111e-03
  0.62500000  0.29166667  0.00000000  1.736111e-03
  0.62500000  0.33333333  0.00000000  1.736111e-03
  0.62500000  0.37500000  0.00000000  1.736111e-03
  0.62500000  0.41666667  0.00000000  1.736111e-03
  0.62500000  0.45833333  0.00000000  1.736111e-03
  0.62500000  0.50000000  0.00000000  1.736111e-03
  0.62500000  0.54166667  0.00000000  1.736111e-03
  0.62500000  0.58333333  0.00000000  1.736111e-03
  0.62500000  0.62500000  0.00000000  1.736111e-03
  0.62500000  0.66666667  0.00000000  1.736111e-03
  0.62500000  0.70833333  0.00000000  1.736111e-03
  0.62500000  0.75000000  0.00000000  1.736111e-03
  0.62500000  0.79166667  0.00000000  1.736111e-03
  0.62500000  0.83333333  0.00000000  1.736111e-03
  0.62500000  0.87500000  0.00000000  1.736111e-03
  0.62500000  0.91666667  0.00000000  1.736111e-03
  0.62500000  0.95833333  0.00000000  1.736111e-03
  0.66666667  0.00000000  0.00000000  1.736111e-03
  0.66666667  0.04166667  0.00000000  1.736111e-03
  0.66666667  0.08333333  0.00000000  1.736111e-03
  0.66666667  0.12500000  0.00000000  1.736111e-03
  0.66666667  0.16666667  0.00000000  1.736111e-03
  0.66666667  0.20833333  0.00000000  1.736111e-03
  0.66666667  0.25000000  0.00000000  1.736111e-03
  0.66666667  0.29166667  0.00000000  1.736111e-03
  0.66666667  0.33333333  0.00000000  1.736111e-03
  0.66666667  0.37500000  0.00000000  1.736111e-03
  0.66666667  0.41666667  0.00000000  1.736111e-03
  0.66666667  0.45833333  0.00000000  1.736111e-03
  0.66666667  0.50000000  0.00000000  1.736111e-03
  0.66666667  0.54166667  0.00000000  1.736111e-03
  0.66666667  0.58333333  0.00000000  1.736111e-03
  0.66666667  0.62500000  0.00000000  1.736111e-03
  0.66666667  0.66666667  0.00000000  1.736111e-03
  0.66666667  0.70833333  0.00000000  1.736111e-03
  0.66666667  0.75000000  0.00000000  1.736111e-03
  0.66666667  0.79166667  0.00000000  1.736111e-03
  0.66666667  0.83333333  0.00000000  1.736111e-03
  0.66666667  0.87500000  0.00000000  1.736111e-03
  0.66666667  0.91666667  0.00000000  1.736111e-03
  0.66666667  0.95833333  0.00000000  1.736111e-03
  0.70833333  0.00000000  0.00000000  1.736111e-03
  0.70833333  0.04166667  0.00000000  1.736111e-03
  0.70833333  0.08333333  0.00000000  1.736111e-03
  0.70833333  0.12500000  0.00000000  1.736111e-03
  0.70833333  0.16666667  0.00000000  1.736111e-03
  0.70833333  0.20833333  0.00000000  1.736111e-03
  0.70833333  0.25000000  0.00000000  1.736111e-03
  0.70833333  0.29166667  0.00000000  1.736111e-03
  0.70833333  0.33333333  0.00000000  1.736111e-03
  0.70833333  0.37500000  0.00000000  1.736111e-03
  0.70833333  0.41666667  0.00000000  1.736111e-03
  0.70833333  0.45833333  0.00000000  1.736111e-03
  0.70833333  0.50000000  0.00000000  1.736111e-03
  0.70833333  0.54166667  0.00000000  1.736111e-03
  0.70833333  0.58333333  0.00000000  1.736111e-03
  0.70833333  0.62500000  0.00000000  1.736111e-03
  0.70833333  0.66666667  0.00000000  1.736111e-03
  0.70833333  0.70833333  0.00000000  1.736111e-03
  0.70833333  0.75000000  0.00000000  1.736111e-03
  0.70833333  0.79166667  0.00000000  1.736111e-03
  0.70833333  0.83333333  0.00000000  1.736111e-03
  0.70833333  0.87500000  0.00000000  1.736111e-03
  0.70833333  0.91666667  0.00000000  1.736111e-03
  0.70833333  0.95833333  0.00000000  1.736111e-03
  0.75000000  0.00000000  0.00000000  1.736111e-03
  0.75000000  0.04166667  0.00000000  1.736111e-03
  0.75000000  0.08333333  0.00000000  1.736111e-03
  0.75000000  0.12500000  0.00000000  1.736111e-03
  0.75000000  0.16666667  0.00000000  1.736111e-03
  0.75000000  0.20833333  0.00000000  1.736111e-03
  0.75000000  0.25000000  0.00000000  1.736111e-03
  0.75000000  0.29166667  0.00000000  1.736111e-03
  0.75000000  0.33333333  0.00000000  1.736111e-03
  0.75000000  0.37500000  0.00000000  1.736111e-03
  0.75000000  0.41666667  0.00000000  1.736111e-03
  0.75000000  0.45833333  0.00000000  1.736111e-03
  0.75000000  0.50000000  0.00000000  1.736111e-03
  0.75000000  0.54166667  0.00000000  1.736111e-03
  0.75000000  0.58333333  0.00000000  1.736111e-03
  0.75000000  0.62500000  0.00000000  1.736111e-03
  0.75000000  0.66666667  0.00000000  1.736111e-03
  0.75000000  0.70833333  0.00000000  1.736111e-03
  0.75000000  0.75000000  0.00000000  1.736111e-03
  0.75000000  0.79166667  0.00000000  1.736111e-03
  0.75000000  0.83333333  0.00000000  1.736111e-03
  0.75000000  0.87500000  0.00000000  1.736111e-03
  0.75000000  0.91666667  0.00000000  1.736111e-03
  0.75000000  0.95833333  0.00000000  1.736111e-03
  0.79166667  0.00000000  0.00000000  1.736111e-03
  0.79166667  0.04166667  0.00000000  1.736111e-03
  0.79166667  0.08333333  0.00000000  1.736111e-03
  0.79166667  0.12500000  0.00000000  1.736111e-03
  0.79166667  0.16666667  0.00000000  1.736111e-03
  0.79166667  0.20833333  0.00000000  1.736111e-03
  0.79166667  0.25000000  0.00000000  1.736111e-03
  0.79166667  0.29166667  0.00000000  1.736111e-03
  0.79166667  0.33333333  0.00000000  1.736111e-03
  0.79166667  0.37500000  0.00000000  1.736111e-03
  0.79166667  0.41666667  0.00000000  1.736111e-03
  0.79166667  0.45833333  0.00000000  1.736111e-03
  0.79166667  0.50000000  0.00000000  1.736111e-03
  0.79166667  0.54166667  0.00000000  1.736111e-03
  0.79166667  0.58333333  0.00000000  1.736111e-03
  0.79166667  0.62500000  0.00000000  1.736111e-03
  0.79166667  0.66666667  0.00000000  1.736111e-03
  0.79166667  0.70833333  0.00000000  1.736111e-03
  0.79166667  0.75000000  0.00000000  1.736111e-03
  0.79166667  0.79166667  0.00000000  1.736111e-03
  0.79166667  0.83333333  0.00000000  1.736111e-03
  0.79166667  0.87500000  0.00000000  1.736111e-03
  0.79166667  0.91666667  0.00000000  1.736111e-03
  0.79166667  0.95833333  0.00000000  1.736111e-03
  0.83333333  0.00000000  0.00000000  1.736111e-03
  0.83333333  0.04166667  0.00000000  1.736111e-03
  0.83333333  0.08333333  0.00000000  1.736111e-03
  0.83333333  0.12500000  0.00000000  1.736111e-03
  0.83333333  0.16666667  0.00000000  1.736111e-03
  0.83333333  0.20833333  0.00000000  1.736111e-03
  0.83333333  0.25000000  0.00000000  1.736111e-03
  0.83333333  0.29166667  0.00000000  1.736111e-03
  0.83333333  0.33333333  0.00000000  1.736111e-03
  0.83333333  0.37500000  0.00000000  1.736111e-03
  0.83333333  0.41666667  0.00000000  1.736111e-03
  0.83333333  0.45833333  0.00000000  1.736111e-03
  0.83333333  0.50000000  0.00000000  1.736111e-03
  0.83333333  0.54166667  0.00000000  1.736111e-03
  0.83333333  0.58333333  0.00000000  1.736111e-03
  0.83333333  0.62500000  0.00000000  1.736111e-03
  0.83333333  0.66666667  0.00000000  1.736111e-03
  0.83333333  0.70833333  0.00000000  1.736111e-03
  0.83333333  0.75000000  0.00000000  1.736111e-03
  0.83333333  0.79166667  0.00000000  1.736111e-03
  0.83333333  0.83333333  0.00000000  1.736111e-03
  0.83333333  0.87500000  0.00000000  1.736111e-03
  0.83333333  0.91666667  0.00000000  1.736111e-03
  0.83333333  0.95833333  0.00000000  1.736111e-03
  0.87500000  0.00000000  0.00000000  1.736111e-03
  0.87500000  0.04166667  0.00000000  1.736111e-03
  0.87500000  0.08333333  0.00000000  1.736111e-03
  0.87500000  0.12500000  0.00000000  1.736111e-03
  0.87500000  0.16666667  0.00000000  1.736111e-03
  0.87500000  0.20833333  0.00000000  1.736111e-03
  0.87500000  0.25000000  0.00000000  1.736111e-03
  0.87500000  0.29166667  0.00000000  1.736111e-03
  0.87500000  0.33333333  0.00000000  1.736111e-03
  0.87500000  0.37500000  0.00000000  1.736111e-03
  0.87500000  0.41666667  0.00000000  1.736111e-03
  0.87500000  0.45833333  0.00000000  1.736111e-03
  0.87500000  0.50000000  0.00000000  1.736111e-03
  0.87500000  0.54166667  0.00000000  1.736111e-03
  0.87500000  0.58333333  0.00000000  1.736111e-03
  0.87500000  0.62500000  0.00000000  1.736111e-03
  0.87500000  0.66666667  0.00000000  1.736111e-03
  0.87500000  0.70833333  0.00000000  1.736111e-03
  0.87500000  0.75000000  0.00000000  1.736111e-03
  0.87500000  0.79166667  0.00000000  1.736111e-03
  0.87500000  0.83333333  0.00000000  1.736111e-03
  0.87500000  0.87500000  0.00000000  1.736111e-03
  0.87500000  0.91666667  0.00000000  1.736111e-03
  0.87500000  0.95833333  0.00000000  1.736111e-03
  0.91666667  0.00000000  0.00000000  1.736111e-03
  0.91666667  0.04166667  0.00000000  1.736111e-03
  0.91666667  0.08333333  0.00000000  1.736111e-03
  0.91666667  0.12500000  0.00000000  1.736111e-03
  0.91666667  0.16666667  0.00000000  1.736111e-03
  0.91666667  0.20833333  0.00000000  1.736111e-03
  0.91666667  0.25000000  0.00000000  1.736111e-03
  0.91666667  0.29166667  0.00000000  1.736111e-03
  0.91666667  0.33333333  0.00000000  1.736111e-03
  0.91666667  0.37500000  0.00000000  1.736111e-03
  0.91666667  0.41666667  0.00000000  1.736111e-03
  0.91666667  0.45833333  0.00000000  1.736111e-03
  0.91666667  0.50000000  0.00000000  1.736111e-03
  0.91666667  0.54166667  0.00000000  1.736111e-03
  0.91666667  0.58333333  0.00000000  1.736111e-03
  0.91666667  0.62500000  0.00000000  1.736111e-03
  0.91666667  0.66666667  0.00000000  1.736111e-03
  0.91666667  0.70833333  0.00000000  1.736111e-03
  0.91666667  0.75000000  0.00000000  1.736111e-03
  0.91666667  0.79166667  0.00000000  1.736111e-03
  0.91666667  0.83333333  0.00000000  1.736111e-03
  0.91666667  0.87500000  0.00000000  1.736111e-03
  0.91666667  0.91666667  0.00000000  1.736111e-03
  0.91666667  0.95833333  0.00000000  1.736111e-03
  0.95833333  0.00000000  0.00000000  1.736111e-03
  0.95833333  0.04166667  0.00000000  1.736111e-03
  0.95833333  0.08333333  0.00000000  1.736111e-03
  0.95833333  0.12500000  0.00000000  1.736111e-03
  0.95833333  0.16666667  0.00000000  1.736111e-03
  0.95833333  0.20833333  0.00000000  1.736111e-03
  0.95833333  0.25000000  0.00000000  1.736111e-03
  0.95833333  0.29166667  0.00000000  1.736111e-03
  0.95833333  0.33333333  0.00000000  1.736111e-03
  0.95833333  0.37500000  0.00000000  1.736111e-03
  0.95833333  0.41666667  0.00000000  1.736111e-03
  0.95833333  0.45833333  0.00000000  1.736111e-03
  0.95833333  0.50000000  0.00000000  1.736111e-03
  0.95833333  0.54166667  0.00000000  1.736111e-03
  0.95833333  0.58333333  0.00000000  1.736111e-03
  0.95833333  0.62500000  0.00000000  1.736111e-03
  0.95833333  0.66666667  0.00000000  1.736111e-03
  0.95833333  0.70833333  0.00000000  1.736111e-03
  0.95833333  0.75000000  0.00000000  1.736111e-03
  0.95833333  0.79166667  0.00000000  1.736111e-03
  0.95833333  0.83333333  0.00000000  1.736111e-03
  0.95833333  0.87500000  0.00000000  1.736111e-03