&CONTROL
  calculation     = 'scf'
  prefix          = 'Gra'
  verbosity       = 'high'
  disk_io         = 'low'
  outdir          = '../tmp/'
  pseudo_dir      = '../pseudo/'
/
&SYSTEM
  ibrav           = 4
  celldm(1)       = 4.6608499868
  celldm(3)       = 8.1089334817
  nat             = 2
  ntyp            = 1
  ecutwfc         = 120
  ecutrho         = 480
  occupations     = 'smearing'
  smearing        = 'mv'
  degauss         = 0.01
  assume_isolated = '2D'
/
&ELECTRONS
  conv_thr = 1.d-12
/
ATOMIC_SPECIES
  C  12.010  C.upf
ATOMIC_POSITIONS (crystal)
  C  0.3333333333  0.6666666667   0.0000000000
  C  0.6666666667  0.3333333333   0.0000000000
K_POINTS (automatic)
  30 30 1 0 0 0
