&CONTROL
  calculation     = 'nscf'
  prefix          = 'Gra'
  verbosity       = 'high'
  disk_io         = 'low'
  outdir          = '../tmp/'
  pseudo_dir      = '../pseudo/'
/
&SYSTEM
  ibrav           = 4
  celldm(1)       = 4.6608499868
  celldm(3)       = 8.1089334817
  nat             = 2
  ntyp            = 1
  nbnd            = 15
  ecutwfc         = 120
  ecutrho         = 480
  occupations     = 'smearing'
  smearing        = 'mv'
  degauss         = 0.01
  assume_isolated = '2D'
/
&ELECTRONS
  conv_thr = 1.d-12
  diago_full_acc = .true.
  diago_thr_init = 1.d-9
/
ATOMIC_SPECIES
  C  12.010  C.upf
ATOMIC_POSITIONS (crystal)
  C  0.3333333333  0.6666666667   0.0000000000
  C  0.6666666667  0.3333333333   0.0000000000
K_POINTS (crystal)
  900
  0.00000000  0.00000000  0.00000000  1.111111e-03
  0.00000000  0.03333333  0.00000000  1.111111e-03
  0.00000000  0.06666667  0.00000000  1.111111e-03
  0.00000000  0.10000000  0.00000000  1.111111e-03
  0.00000000  0.13333333  0.00000000  1.111111e-03
  0.00000000  0.16666667  0.00000000  1.111111e-03
  0.00000000  0.20000000  0.00000000  1.111111e-03
  0.00000000  0.23333333  0.00000000  1.111111e-03
  0.00000000  0.26666667  0.00000000  1.111111e-03
  0.00000000  0.30000000  0.00000000  1.111111e-03
  0.00000000  0.33333333  0.00000000  1.111111e-03
  0.00000000  0.36666667  0.00000000  1.111111e-03
  0.00000000  0.40000000  0.00000000  1.111111e-03
  0.00000000  0.43333333  0.00000000  1.111111e-03
  0.00000000  0.46666667  0.00000000  1.111111e-03
  0.00000000  0.50000000  0.00000000  1.111111e-03
  0.00000000  0.53333333  0.00000000  1.111111e-03
  0.00000000  0.56666667  0.00000000  1.111111e-03
  0.00000000  0.60000000  0.00000000  1.111111e-03
  0.00000000  0.63333333  0.00000000  1.111111e-03
  0.00000000  0.66666667  0.00000000  1.111111e-03
  0.00000000  0.70000000  0.00000000  1.111111e-03
  0.00000000  0.73333333  0.00000000  1.111111e-03
  0.00000000  0.76666667  0.00000000  1.111111e-03
  0.00000000  0.80000000  0.00000000  1.111111e-03
  0.00000000  0.83333333  0.00000000  1.111111e-03
  0.00000000  0.86666667  0.00000000  1.111111e-03
  0.00000000  0.90000000  0.00000000  1.111111e-03
  0.00000000  0.93333333  0.00000000  1.111111e-03
  0.00000000  0.96666667  0.00000000  1.111111e-03
  0.03333333  0.00000000  0.00000000  1.111111e-03
  0.03333333  0.03333333  0.00000000  1.111111e-03
  0.03333333  0.06666667  0.00000000  1.111111e-03
  0.03333333  0.10000000  0.00000000  1.111111e-03
  0.03333333  0.13333333  0.00000000  1.111111e-03
  0.03333333  0.16666667  0.00000000  1.111111e-03
  0.03333333  0.20000000  0.00000000  1.111111e-03
  0.03333333  0.23333333  0.00000000  1.111111e-03
  0.03333333  0.26666667  0.00000000  1.111111e-03
  0.03333333  0.30000000  0.00000000  1.111111e-03
  0.03333333  0.33333333  0.00000000  1.111111e-03
  0.03333333  0.36666667  0.00000000  1.111111e-03
  0.03333333  0.40000000  0.00000000  1.111111e-03
  0.03333333  0.43333333  0.00000000  1.111111e-03
  0.03333333  0.46666667  0.00000000  1.111111e-03
  0.03333333  0.50000000  0.00000000  1.111111e-03
  0.03333333  0.53333333  0.00000000  1.111111e-03
  0.03333333  0.56666667  0.00000000  1.111111e-03
  0.03333333  0.60000000  0.00000000  1.111111e-03
  0.03333333  0.63333333  0.00000000  1.111111e-03
  0.03333333  0.66666667  0.00000000  1.111111e-03
  0.03333333  0.70000000  0.00000000  1.111111e-03
  0.03333333  0.73333333  0.00000000  1.111111e-03
  0.03333333  0.76666667  0.00000000  1.111111e-03
  0.03333333  0.80000000  0.00000000  1.111111e-03
  0.03333333  0.83333333  0.00000000  1.111111e-03
  0.03333333  0.86666667  0.00000000  1.111111e-03
  0.03333333  0.90000000  0.00000000  1.111111e-03
  0.03333333  0.93333333  0.00000000  1.111111e-03
  0.03333333  0.96666667  0.00000000  1.111111e-03
  0.06666667  0.00000000  0.00000000  1.111111e-03
  0.06666667  0.03333333  0.00000000  1.111111e-03
  0.06666667  0.06666667  0.00000000  1.111111e-03
  0.06666667  0.10000000  0.00000000  1.111111e-03
  0.06666667  0.13333333  0.00000000  1.111111e-03
  0.06666667  0.16666667  0.00000000  1.111111e-03
  0.06666667  0.20000000  0.00000000  1.111111e-03
  0.06666667  0.23333333  0.00000000  1.111111e-03
  0.06666667  0.26666667  0.00000000  1.111111e-03
  0.06666667  0.30000000  0.00000000  1.111111e-03
  0.06666667  0.33333333  0.00000000  1.111111e-03
  0.06666667  0.36666667  0.00000000  1.111111e-03
  0.06666667  0.40000000  0.00000000  1.111111e-03
  0.06666667  0.43333333  0.00000000  1.111111e-03
  0.06666667  0.46666667  0.00000000  1.111111e-03
  0.06666667  0.50000000  0.00000000  1.111111e-03
  0.06666667  0.53333333  0.00000000  1.111111e-03
  0.06666667  0.56666667  0.00000000  1.111111e-03
  0.06666667  0.60000000  0.00000000  1.111111e-03
  0.06666667  0.63333333  0.00000000  1.111111e-03
  0.06666667  0.66666667  0.00000000  1.111111e-03
  0.06666667  0.70000000  0.00000000  1.111111e-03
  0.06666667  0.73333333  0.00000000  1.111111e-03
  0.06666667  0.76666667  0.00000000  1.111111e-03
  0.06666667  0.80000000  0.00000000  1.111111e-03
  0.06666667  0.83333333  0.00000000  1.111111e-03
  0.06666667  0.86666667  0.00000000  1.111111e-03
  0.06666667  0.90000000  0.00000000  1.111111e-03
  0.06666667  0.93333333  0.00000000  1.111111e-03
  0.06666667  0.96666667  0.00000000  1.111111e-03
  0.10000000  0.00000000  0.00000000  1.111111e-03
  0.10000000  0.03333333  0.00000000  1.111111e-03
  0.10000000  0.06666667  0.00000000  1.111111e-03
  0.10000000  0.10000000  0.00000000  1.111111e-03
  0.10000000  0.13333333  0.00000000  1.111111e-03
  0.10000000  0.16666667  0.00000000  1.111111e-03
  0.10000000  0.20000000  0.00000000  1.111111e-03
  0.10000000  0.23333333  0.00000000  1.111111e-03
  0.10000000  0.26666667  0.00000000  1.111111e-03
  0.10000000  0.30000000  0.00000000  1.111111e-03
  0.10000000  0.33333333  0.00000000  1.111111e-03
  0.10000000  0.36666667  0.00000000  1.111111e-03
  0.10000000  0.40000000  0.00000000  1.111111e-03
  0.10000000  0.43333333  0.00000000  1.111111e-03
  0.10000000  0.46666667  0.00000000  1.111111e-03
  0.10000000  0.50000000  0.00000000  1.111111e-03
  0.10000000  0.53333333  0.00000000  1.111111e-03
  0.10000000  0.56666667  0.00000000  1.111111e-03
  0.10000000  0.60000000  0.00000000  1.111111e-03
  0.10000000  0.63333333  0.00000000  1.111111e-03
  0.10000000  0.66666667  0.00000000  1.111111e-03
  0.10000000  0.70000000  0.00000000  1.111111e-03
  0.10000000  0.73333333  0.00000000  1.111111e-03
  0.10000000  0.76666667  0.00000000  1.111111e-03
  0.10000000  0.80000000  0.00000000  1.111111e-03
  0.10000000  0.83333333  0.00000000  1.111111e-03
  0.10000000  0.86666667  0.00000000  1.111111e-03
  0.10000000  0.90000000  0.00000000  1.111111e-03
  0.10000000  0.93333333  0.00000000  1.111111e-03
  0.10000000  0.96666667  0.00000000  1.111111e-03
  0.13333333  0.00000000  0.00000000  1.111111e-03
  0.13333333  0.03333333  0.00000000  1.111111e-03
  0.13333333  0.06666667  0.00000000  1.111111e-03
  0.13333333  0.10000000  0.00000000  1.111111e-03
  0.13333333  0.13333333  0.00000000  1.111111e-03
  0.13333333  0.16666667  0.00000000  1.111111e-03
  0.13333333  0.20000000  0.00000000  1.111111e-03
  0.13333333  0.23333333  0.00000000  1.111111e-03
  0.13333333  0.26666667  0.00000000  1.111111e-03
  0.13333333  0.30000000  0.00000000  1.111111e-03
  0.13333333  0.33333333  0.00000000  1.111111e-03
  0.13333333  0.36666667  0.00000000  1.111111e-03
  0.13333333  0.40000000  0.00000000  1.111111e-03
  0.13333333  0.43333333  0.00000000  1.111111e-03
  0.13333333  0.46666667  0.00000000  1.111111e-03
  0.13333333  0.50000000  0.00000000  1.111111e-03
  0.13333333  0.53333333  0.00000000  1.111111e-03
  0.13333333  0.56666667  0.00000000  1.111111e-03
  0.13333333  0.60000000  0.00000000  1.111111e-03
  0.13333333  0.63333333  0.00000000  1.111111e-03
  0.13333333  0.66666667  0.00000000  1.111111e-03
  0.13333333  0.70000000  0.00000000  1.111111e-03
  0.13333333  0.73333333  0.00000000  1.111111e-03
  0.13333333  0.76666667  0.00000000  1.111111e-03
  0.13333333  0.80000000  0.00000000  1.111111e-03
  0.13333333  0.83333333  0.00000000  1.111111e-03
  0.13333333  0.86666667  0.00000000  1.111111e-03
  0.13333333  0.90000000  0.00000000  1.111111e-03
  0.13333333  0.93333333  0.00000000  1.111111e-03
  0.13333333  0.96666667  0.00000000  1.111111e-03
  0.16666667  0.00000000  0.00000000  1.111111e-03
  0.16666667  0.03333333  0.00000000  1.111111e-03
  0.16666667  0.06666667  0.00000000  1.111111e-03
  0.16666667  0.10000000  0.00000000  1.111111e-03
  0.16666667  0.13333333  0.00000000  1.111111e-03
  0.16666667  0.16666667  0.00000000  1.111111e-03
  0.16666667  0.20000000  0.00000000  1.111111e-03
  0.16666667  0.23333333  0.00000000  1.111111e-03
  0.16666667  0.26666667  0.00000000  1.111111e-03
  0.16666667  0.30000000  0.00000000  1.111111e-03
  0.16666667  0.33333333  0.00000000  1.111111e-03
  0.16666667  0.36666667  0.00000000  1.111111e-03
  0.16666667  0.40000000  0.00000000  1.111111e-03
  0.16666667  0.43333333  0.00000000  1.111111e-03
  0.16666667  0.46666667  0.00000000  1.111111e-03
  0.16666667  0.50000000  0.00000000  1.111111e-03
  0.16666667  0.53333333  0.00000000  1.111111e-03
  0.16666667  0.56666667  0.00000000  1.111111e-03
  0.16666667  0.60000000  0.00000000  1.111111e-03
  0.16666667  0.63333333  0.00000000  1.111111e-03
  0.16666667  0.66666667  0.00000000  1.111111e-03
  0.16666667  0.70000000  0.00000000  1.111111e-03
  0.16666667  0.73333333  0.00000000  1.111111e-03
  0.16666667  0.76666667  0.00000000  1.111111e-03
  0.16666667  0.80000000  0.00000000  1.111111e-03
  0.16666667  0.83333333  0.00000000  1.111111e-03
  0.16666667  0.86666667  0.00000000  1.111111e-03
  0.16666667  0.90000000  0.00000000  1.111111e-03
  0.16666667  0.93333333  0.00000000  1.111111e-03
  0.16666667  0.96666667  0.00000000  1.111111e-03
  0.20000000  0.00000000  0.00000000  1.111111e-03
  0.20000000  0.03333333  0.00000000  1.111111e-03
  0.20000000  0.06666667  0.00000000  1.111111e-03
  0.20000000  0.10000000  0.00000000  1.111111e-03
  0.20000000  0.13333333  0.00000000  1.111111e-03
  0.20000000  0.16666667  0.00000000  1.111111e-03
  0.20000000  0.20000000  0.00000000  1.111111e-03
  0.20000000  0.23333333  0.00000000  1.111111e-03
  0.20000000  0.26666667  0.00000000  1.111111e-03
  0.20000000  0.30000000  0.00000000  1.111111e-03
  0.20000000  0.33333333  0.00000000  1.111111e-03
  0.20000000  0.36666667  0.00000000  1.111111e-03
  0.20000000  0.40000000  0.00000000  1.111111e-03
  0.20000000  0.43333333  0.00000000  1.111111e-03
  0.20000000  0.46666667  0.00000000  1.111111e-03
  0.20000000  0.50000000  0.00000000  1.111111e-03
  0.20000000  0.53333333  0.00000000  1.111111e-03
  0.20000000  0.56666667  0.00000000  1.111111e-03
  0.20000000  0.60000000  0.00000000  1.111111e-03
  0.20000000  0.63333333  0.00000000  1.111111e-03
  0.20000000  0.66666667  0.00000000  1.111111e-03
  0.20000000  0.70000000  0.00000000  1.111111e-03
  0.20000000  0.73333333  0.00000000  1.111111e-03
  0.20000000  0.76666667  0.00000000  1.111111e-03
  0.20000000  0.80000000  0.00000000  1.111111e-03
  0.20000000  0.83333333  0.00000000  1.111111e-03
  0.20000000  0.86666667  0.00000000  1.111111e-03
  0.20000000  0.90000000  0.00000000  1.111111e-03
  0.20000000  0.93333333  0.00000000  1.111111e-03
  0.20000000  0.96666667  0.00000000  1.111111e-03
  0.23333333  0.00000000  0.00000000  1.111111e-03
  0.23333333  0.03333333  0.00000000  1.111111e-03
  0.23333333  0.06666667  0.00000000  1.111111e-03
  0.23333333  0.10000000  0.00000000  1.111111e-03
  0.23333333  0.13333333  0.00000000  1.111111e-03
  0.23333333  0.16666667  0.00000000  1.111111e-03
  0.23333333  0.20000000  0.00000000  1.111111e-03
  0.23333333  0.23333333  0.00000000  1.111111e-03
  0.23333333  0.26666667  0.00000000  1.111111e-03
  0.23333333  0.30000000  0.00000000  1.111111e-03
  0.23333333  0.33333333  0.00000000  1.111111e-03
  0.23333333  0.36666667  0.00000000  1.111111e-03
  0.23333333  0.40000000  0.00000000  1.111111e-03
  0.23333333  0.43333333  0.00000000  1.111111e-03
  0.23333333  0.46666667  0.00000000  1.111111e-03
  0.23333333  0.50000000  0.00000000  1.111111e-03
  0.23333333  0.53333333  0.00000000  1.111111e-03
  0.23333333  0.56666667  0.00000000  1.111111e-03
  0.23333333  0.60000000  0.00000000  1.111111e-03
  0.23333333  0.63333333  0.00000000  1.111111e-03
  0.23333333  0.66666667  0.00000000  1.111111e-03
  0.23333333  0.70000000  0.00000000  1.111111e-03
  0.23333333  0.73333333  0.00000000  1.111111e-03
  0.23333333  0.76666667  0.00000000  1.111111e-03
  0.23333333  0.80000000  0.00000000  1.111111e-03
  0.23333333  0.83333333  0.00000000  1.111111e-03
  0.23333333  0.86666667  0.00000000  1.111111e-03
  0.23333333  0.90000000  0.00000000  1.111111e-03
  0.23333333  0.93333333  0.00000000  1.111111e-03
  0.23333333  0.96666667  0.00000000  1.111111e-03
  0.26666667  0.00000000  0.00000000  1.111111e-03
  0.26666667  0.03333333  0.00000000  1.111111e-03
  0.26666667  0.06666667  0.00000000  1.111111e-03
  0.26666667  0.10000000  0.00000000  1.111111e-03
  0.26666667  0.13333333  0.00000000  1.111111e-03
  0.26666667  0.16666667  0.00000000  1.111111e-03
  0.26666667  0.20000000  0.00000000  1.111111e-03
  0.26666667  0.23333333  0.00000000  1.111111e-03
  0.26666667  0.26666667  0.00000000  1.111111e-03
  0.26666667  0.30000000  0.00000000  1.111111e-03
  0.26666667  0.33333333  0.00000000  1.111111e-03
  0.26666667  0.36666667  0.00000000  1.111111e-03
  0.26666667  0.40000000  0.00000000  1.111111e-03
  0.26666667  0.43333333  0.00000000  1.111111e-03
  0.26666667  0.46666667  0.00000000  1.111111e-03
  0.26666667  0.50000000  0.00000000  1.111111e-03
  0.26666667  0.53333333  0.00000000  1.111111e-03
  0.26666667  0.56666667  0.00000000  1.111111e-03
  0.26666667  0.60000000  0.00000000  1.111111e-03
  0.26666667  0.63333333  0.00000000  1.111111e-03
  0.26666667  0.66666667  0.00000000  1.111111e-03
  0.26666667  0.70000000  0.00000000  1.111111e-03
  0.26666667  0.73333333  0.00000000  1.111111e-03
  0.26666667  0.76666667  0.00000000  1.111111e-03
  0.26666667  0.80000000  0.00000000  1.111111e-03
  0.26666667  0.83333333  0.00000000  1.111111e-03
  0.26666667  0.86666667  0.00000000  1.111111e-03
  0.26666667  0.90000000  0.00000000  1.111111e-03
  0.26666667  0.93333333  0.00000000  1.111111e-03
  0.26666667  0.96666667  0.00000000  1.111111e-03
  0.30000000  0.00000000  0.00000000  1.111111e-03
  0.30000000  0.03333333  0.00000000  1.111111e-03
  0.30000000  0.06666667  0.00000000  1.111111e-03
  0.30000000  0.10000000  0.00000000  1.111111e-03
  0.30000000  0.13333333  0.00000000  1.111111e-03
  0.30000000  0.16666667  0.00000000  1.111111e-03
  0.30000000  0.20000000  0.00000000  1.111111e-03
  0.30000000  0.23333333  0.00000000  1.111111e-03
  0.30000000  0.26666667  0.00000000  1.111111e-03
  0.30000000  0.30000000  0.00000000  1.111111e-03
  0.30000000  0.33333333  0.00000000  1.111111e-03
  0.30000000  0.36666667  0.00000000  1.111111e-03
  0.30000000  0.40000000  0.00000000  1.111111e-03
  0.30000000  0.43333333  0.00000000  1.111111e-03
  0.30000000  0.46666667  0.00000000  1.111111e-03
  0.30000000  0.50000000  0.00000000  1.111111e-03
  0.30000000  0.53333333  0.00000000  1.111111e-03
  0.30000000  0.56666667  0.00000000  1.111111e-03
  0.30000000  0.60000000  0.00000000  1.111111e-03
  0.30000000  0.63333333  0.00000000  1.111111e-03
  0.30000000  0.66666667  0.00000000  1.111111e-03
  0.30000000  0.70000000  0.00000000  1.111111e-03
  0.30000000  0.73333333  0.00000000  1.111111e-03
  0.30000000  0.76666667  0.00000000  1.111111e-03
  0.30000000  0.80000000  0.00000000  1.111111e-03
  0.30000000  0.83333333  0.00000000  1.111111e-03
  0.30000000  0.86666667  0.00000000  1.111111e-03
  0.30000000  0.90000000  0.00000000  1.111111e-03
  0.30000000  0.93333333  0.00000000  1.111111e-03
  0.30000000  0.96666667  0.00000000  1.111111e-03
  0.33333333  0.00000000  0.00000000  1.111111e-03
  0.33333333  0.03333333  0.00000000  1.111111e-03
  0.33333333  0.06666667  0.00000000  1.111111e-03
  0.33333333  0.10000000  0.00000000  1.111111e-03
  0.33333333  0.13333333  0.00000000  1.111111e-03
  0.33333333  0.16666667  0.00000000  1.111111e-03
  0.33333333  0.20000000  0.00000000  1.111111e-03
  0.33333333  0.23333333  0.00000000  1.111111e-03
  0.33333333  0.26666667  0.00000000  1.111111e-03
  0.33333333  0.30000000  0.00000000  1.111111e-03
  0.33333333  0.33333333  0.00000000  1.111111e-03
  0.33333333  0.36666667  0.00000000  1.111111e-03
  0.33333333  0.40000000  0.00000000  1.111111e-03
  0.33333333  0.43333333  0.00000000  1.111111e-03
  0.33333333  0.46666667  0.00000000  1.111111e-03
  0.33333333  0.50000000  0.00000000  1.111111e-03
  0.33333333  0.53333333  0.00000000  1.111111e-03
  0.33333333  0.56666667  0.00000000  1.111111e-03
  0.33333333  0.60000000  0.00000000  1.111111e-03
  0.33333333  0.63333333  0.00000000  1.111111e-03
  0.33333333  0.66666667  0.00000000  1.111111e-03
  0.33333333  0.70000000  0.00000000  1.111111e-03
  0.33333333  0.73333333  0.00000000  1.111111e-03
  0.33333333  0.76666667  0.00000000  1.111111e-03
  0.33333333  0.80000000  0.00000000  1.111111e-03
  0.33333333  0.83333333  0.00000000  1.111111e-03
  0.33333333  0.86666667  0.00000000  1.111111e-03
  0.33333333  0.90000000  0.00000000  1.111111e-03
  0.33333333  0.93333333  0.00000000  1.111111e-03
  0.33333333  0.96666667  0.00000000  1.111111e-03
  0.36666667  0.00000000  0.00000000  1.111111e-03
  0.36666667  0.03333333  0.00000000  1.111111e-03
  0.36666667  0.06666667  0.00000000  1.111111e-03
  0.36666667  0.10000000  0.00000000  1.111111e-03
  0.36666667  0.13333333  0.00000000  1.111111e-03
  0.36666667  0.16666667  0.00000000  1.111111e-03
  0.36666667  0.20000000  0.00000000  1.111111e-03
  0.36666667  0.23333333  0.00000000  1.111111e-03
  0.36666667  0.26666667  0.00000000  1.111111e-03
  0.36666667  0.30000000  0.00000000  1.111111e-03
  0.36666667  0.33333333  0.00000000  1.111111e-03
  0.36666667  0.36666667  0.00000000  1.111111e-03
  0.36666667  0.40000000  0.00000000  1.111111e-03
  0.36666667  0.43333333  0.00000000  1.111111e-03
  0.36666667  0.46666667  0.00000000  1.111111e-03
  0.36666667  0.50000000  0.00000000  1.111111e-03
  0.36666667  0.53333333  0.00000000  1.111111e-03
  0.36666667  0.56666667  0.00000000  1.111111e-03
  0.36666667  0.60000000  0.00000000  1.111111e-03
  0.36666667  0.63333333  0.00000000  1.111111e-03
  0.36666667  0.66666667  0.00000000  1.111111e-03
  0.36666667  0.70000000  0.00000000  1.111111e-03
  0.36666667  0.73333333  0.00000000  1.111111e-03
  0.36666667  0.76666667  0.00000000  1.111111e-03
  0.36666667  0.80000000  0.00000000  1.111111e-03
  0.36666667  0.83333333  0.00000000  1.111111e-03
  0.36666667  0.86666667  0.00000000  1.111111e-03
  0.36666667  0.90000000  0.00000000  1.111111e-03
  0.36666667  0.93333333  0.00000000  1.111111e-03
  0.36666667  0.96666667  0.00000000  1.111111e-03
  0.40000000  0.00000000  0.00000000  1.111111e-03
  0.40000000  0.03333333  0.00000000  1.111111e-03
  0.40000000  0.06666667  0.00000000  1.111111e-03
  0.40000000  0.10000000  0.00000000  1.111111e-03
  0.40000000  0.13333333  0.00000000  1.111111e-03
  0.40000000  0.16666667  0.00000000  1.111111e-03
  0.40000000  0.20000000  0.00000000  1.111111e-03
  0.40000000  0.23333333  0.00000000  1.111111e-03
  0.40000000  0.26666667  0.00000000  1.111111e-03
  0.40000000  0.30000000  0.00000000  1.111111e-03
  0.40000000  0.33333333  0.00000000  1.111111e-03
  0.40000000  0.36666667  0.00000000  1.111111e-03
  0.40000000  0.40000000  0.00000000  1.111111e-03
  0.40000000  0.43333333  0.00000000  1.111111e-03
  0.40000000  0.46666667  0.00000000  1.111111e-03
  0.40000000  0.50000000  0.00000000  1.111111e-03
  0.40000000  0.53333333  0.00000000  1.111111e-03
  0.40000000  0.56666667  0.00000000  1.111111e-03
  0.40000000  0.60000000  0.00000000  1.111111e-03
  0.40000000  0.63333333  0.00000000  1.111111e-03
  0.40000000  0.66666667  0.00000000  1.111111e-03
  0.40000000  0.70000000  0.00000000  1.111111e-03
  0.40000000  0.73333333  0.00000000  1.111111e-03
  0.40000000  0.76666667  0.00000000  1.111111e-03
  0.40000000  0.80000000  0.00000000  1.111111e-03
  0.40000000  0.83333333  0.00000000  1.111111e-03
  0.40000000  0.86666667  0.00000000  1.111111e-03
  0.40000000  0.90000000  0.00000000  1.111111e-03
  0.40000000  0.93333333  0.00000000  1.111111e-03
  0.40000000  0.96666667  0.00000000  1.111111e-03
  0.43333333  0.00000000  0.00000000  1.111111e-03
  0.43333333  0.03333333  0.00000000  1.111111e-03
  0.43333333  0.06666667  0.00000000  1.111111e-03
  0.43333333  0.10000000  0.00000000  1.111111e-03
  0.43333333  0.13333333  0.00000000  1.111111e-03
  0.43333333  0.16666667  0.00000000  1.111111e-03
  0.43333333  0.20000000  0.00000000  1.111111e-03
  0.43333333  0.23333333  0.00000000  1.111111e-03
  0.43333333  0.26666667  0.00000000  1.111111e-03
  0.43333333  0.30000000  0.00000000  1.111111e-03
  0.43333333  0.33333333  0.00000000  1.111111e-03
  0.43333333  0.36666667  0.00000000  1.111111e-03
  0.43333333  0.40000000  0.00000000  1.111111e-03
  0.43333333  0.43333333  0.00000000  1.111111e-03
  0.43333333  0.46666667  0.00000000  1.111111e-03
  0.43333333  0.50000000  0.00000000  1.111111e-03
  0.43333333  0.53333333  0.00000000  1.111111e-03
  0.43333333  0.56666667  0.00000000  1.111111e-03
  0.43333333  0.60000000  0.00000000  1.111111e-03
  0.43333333  0.63333333  0.00000000  1.111111e-03
  0.43333333  0.66666667  0.00000000  1.111111e-03
  0.43333333  0.70000000  0.00000000  1.111111e-03
  0.43333333  0.73333333  0.00000000  1.111111e-03
  0.43333333  0.76666667  0.00000000  1.111111e-03
  0.43333333  0.80000000  0.00000000  1.111111e-03
  0.43333333  0.83333333  0.00000000  1.111111e-03
  0.43333333  0.86666667  0.00000000  1.111111e-03
  0.43333333  0.90000000  0.00000000  1.111111e-03
  0.43333333  0.93333333  0.00000000  1.111111e-03
  0.43333333  0.96666667  0.00000000  1.111111e-03
  0.46666667  0.00000000  0.00000000  1.111111e-03
  0.46666667  0.03333333  0.00000000  1.111111e-03
  0.46666667  0.06666667  0.00000000  1.111111e-03
  0.46666667  0.10000000  0.00000000  1.111111e-03
  0.46666667  0.13333333  0.00000000  1.111111e-03
  0.46666667  0.16666667  0.00000000  1.111111e-03
  0.46666667  0.20000000  0.00000000  1.111111e-03
  0.46666667  0.23333333  0.00000000  1.111111e-03
  0.46666667  0.26666667  0.00000000  1.111111e-03
  0.46666667  0.30000000  0.00000000  1.111111e-03
  0.46666667  0.33333333  0.00000000  1.111111e-03
  0.46666667  0.36666667  0.00000000  1.111111e-03
  0.46666667  0.40000000  0.00000000  1.111111e-03
  0.46666667  0.43333333  0.00000000  1.111111e-03
  0.46666667  0.46666667  0.00000000  1.111111e-03
  0.46666667  0.50000000  0.00000000  1.111111e-03
  0.46666667  0.53333333  0.00000000  1.111111e-03
  0.46666667  0.56666667  0.00000000  1.111111e-03
  0.46666667  0.60000000  0.00000000  1.111111e-03
  0.46666667  0.63333333  0.00000000  1.111111e-03
  0.46666667  0.66666667  0.00000000  1.111111e-03
  0.46666667  0.70000000  0.00000000  1.111111e-03
  0.46666667  0.73333333  0.00000000  1.111111e-03
  0.46666667  0.76666667  0.00000000  1.111111e-03
  0.46666667  0.80000000  0.00000000  1.111111e-03
  0.46666667  0.83333333  0.00000000  1.111111e-03
  0.46666667  0.86666667  0.00000000  1.111111e-03
  0.46666667  0.90000000  0.00000000  1.111111e-03
  0.46666667  0.93333333  0.00000000  1.111111e-03
  0.46666667  0.96666667  0.00000000  1.111111e-03
  0.50000000  0.00000000  0.00000000  1.111111e-03
  0.50000000  0.03333333  0.00000000  1.111111e-03
  0.50000000  0.06666667  0.00000000  1.111111e-03
  0.50000000  0.10000000  0.00000000  1.111111e-03
  0.50000000  0.13333333  0.00000000  1.111111e-03
  0.50000000  0.16666667  0.00000000  1.111111e-03
  0.50000000  0.20000000  0.00000000  1.111111e-03
  0.50000000  0.23333333  0.00000000  1.111111e-03
  0.50000000  0.26666667  0.00000000  1.111111e-03
  0.50000000  0.30000000  0.00000000  1.111111e-03
  0.50000000  0.33333333  0.00000000  1.111111e-03
  0.50000000  0.36666667  0.00000000  1.111111e-03
  0.50000000  0.40000000  0.00000000  1.111111e-03
  0.50000000  0.43333333  0.00000000  1.111111e-03
  0.50000000  0.46666667  0.00000000  1.111111e-03
  0.50000000  0.50000000  0.00000000  1.111111e-03
  0.50000000  0.53333333  0.00000000  1.111111e-03
  0.50000000  0.56666667  0.00000000  1.111111e-03
  0.50000000  0.60000000  0.00000000  1.111111e-03
  0.50000000  0.63333333  0.00000000  1.111111e-03
  0.50000000  0.66666667  0.00000000  1.111111e-03
  0.50000000  0.70000000  0.00000000  1.111111e-03
  0.50000000  0.73333333  0.00000000  1.111111e-03
  0.50000000  0.76666667  0.00000000  1.111111e-03
  0.50000000  0.80000000  0.00000000  1.111111e-03
  0.50000000  0.83333333  0.00000000  1.111111e-03
  0.50000000  0.86666667  0.00000000  1.111111e-03
  0.50000000  0.90000000  0.00000000  1.111111e-03
  0.50000000  0.93333333  0.00000000  1.111111e-03
  0.50000000  0.96666667  0.00000000  1.111111e-03
  0.53333333  0.00000000  0.00000000  1.111111e-03
  0.53333333  0.03333333  0.00000000  1.111111e-03
  0.53333333  0.06666667  0.00000000  1.111111e-03
  0.53333333  0.10000000  0.00000000  1.111111e-03
  0.53333333  0.13333333  0.00000000  1.111111e-03
  0.53333333  0.16666667  0.00000000  1.111111e-03
  0.53333333  0.20000000  0.00000000  1.111111e-03
  0.53333333  0.23333333  0.00000000  1.111111e-03
  0.53333333  0.26666667  0.00000000  1.111111e-03
  0.53333333  0.30000000  0.00000000  1.111111e-03
  0.53333333  0.33333333  0.00000000  1.111111e-03
  0.53333333  0.36666667  0.00000000  1.111111e-03
  0.53333333  0.40000000  0.00000000  1.111111e-03
  0.53333333  0.43333333  0.00000000  1.111111e-03
  0.53333333  0.46666667  0.00000000  1.111111e-03
  0.53333333  0.50000000  0.00000000  1.111111e-03
  0.53333333  0.53333333  0.00000000  1.111111e-03
  0.53333333  0.56666667  0.00000000  1.111111e-03
  0.53333333  0.60000000  0.00000000  1.111111e-03
  0.53333333  0.63333333  0.00000000  1.111111e-03
  0.53333333  0.66666667  0.00000000  1.111111e-03
  0.53333333  0.70000000  0.00000000  1.111111e-03
  0.53333333  0.73333333  0.00000000  1.111111e-03
  0.53333333  0.76666667  0.00000000  1.111111e-03
  0.53333333  0.80000000  0.00000000  1.111111e-03
  0.53333333  0.83333333  0.00000000  1.111111e-03
  0.53333333  0.86666667  0.00000000  1.111111e-03
  0.53333333  0.90000000  0.00000000  1.111111e-03
  0.53333333  0.93333333  0.00000000  1.111111e-03
  0.53333333  0.96666667  0.00000000  1.111111e-03
  0.56666667  0.00000000  0.00000000  1.111111e-03
  0.56666667  0.03333333  0.00000000  1.111111e-03
  0.56666667  0.06666667  0.00000000  1.111111e-03
  0.56666667  0.10000000  0.00000000  1.111111e-03
  0.56666667  0.13333333  0.00000000  1.111111e-03
  0.56666667  0.16666667  0.00000000  1.111111e-03
  0.56666667  0.20000000  0.00000000  1.111111e-03
  0.56666667  0.23333333  0.00000000  1.111111e-03
  0.56666667  0.26666667  0.00000000  1.111111e-03
  0.56666667  0.30000000  0.00000000  1.111111e-03
  0.56666667  0.33333333  0.00000000  1.111111e-03
  0.56666667  0.36666667  0.00000000  1.111111e-03
  0.56666667  0.40000000  0.00000000  1.111111e-03
  0.56666667  0.43333333  0.00000000  1.111111e-03
  0.56666667  0.46666667  0.00000000  1.111111e-03
  0.56666667  0.50000000  0.00000000  1.111111e-03
  0.56666667  0.53333333  0.00000000  1.111111e-03
  0.56666667  0.56666667  0.00000000  1.111111e-03
  0.56666667  0.60000000  0.00000000  1.111111e-03
  0.56666667  0.63333333  0.00000000  1.111111e-03
  0.56666667  0.66666667  0.00000000  1.111111e-03
  0.56666667  0.70000000  0.00000000  1.111111e-03
  0.56666667  0.73333333  0.00000000  1.111111e-03
  0.56666667  0.76666667  0.00000000  1.111111e-03
  0.56666667  0.80000000  0.00000000  1.111111e-03
  0.56666667  0.83333333  0.00000000  1.111111e-03
  0.56666667  0.86666667  0.00000000  1.111111e-03
  0.56666667  0.90000000  0.00000000  1.111111e-03
  0.56666667  0.93333333  0.00000000  1.111111e-03
  0.56666667  0.96666667  0.00000000  1.111111e-03
  0.60000000  0.00000000  0.00000000  1.111111e-03
  0.60000000  0.03333333  0.00000000  1.111111e-03
  0.60000000  0.06666667  0.00000000  1.111111e-03
  0.60000000  0.10000000  0.00000000  1.111111e-03
  0.60000000  0.13333333  0.00000000  1.111111e-03
  0.60000000  0.16666667  0.00000000  1.111111e-03
  0.60000000  0.20000000  0.00000000  1.111111e-03
  0.60000000  0.23333333  0.00000000  1.111111e-03
  0.60000000  0.26666667  0.00000000  1.111111e-03
  0.60000000  0.30000000  0.00000000  1.111111e-03
  0.60000000  0.33333333  0.00000000  1.111111e-03
  0.60000000  0.36666667  0.00000000  1.111111e-03
  0.60000000  0.40000000  0.00000000  1.111111e-03
  0.60000000  0.43333333  0.00000000  1.111111e-03
  0.60000000  0.46666667  0.00000000  1.111111e-03
  0.60000000  0.50000000  0.00000000  1.111111e-03
  0.60000000  0.53333333  0.00000000  1.111111e-03
  0.60000000  0.56666667  0.00000000  1.111111e-03
  0.60000000  0.60000000  0.00000000  1.111111e-03
  0.60000000  0.63333333  0.00000000  1.111111e-03
  0.60000000  0.66666667  0.00000000  1.111111e-03
  0.60000000  0.70000000  0.00000000  1.111111e-03
  0.60000000  0.73333333  0.00000000  1.111111e-03
  0.60000000  0.76666667  0.00000000  1.111111e-03
  0.60000000  0.80000000  0.00000000  1.111111e-03
  0.60000000  0.83333333  0.00000000  1.111111e-03
  0.60000000  0.86666667  0.00000000  1.111111e-03
  0.60000000  0.90000000  0.00000000  1.111111e-03
  0.60000000  0.93333333  0.00000000  1.111111e-03
  0.60000000  0.96666667  0.00000000  1.111111e-03
  0.63333333  0.00000000  0.00000000  1.111111e-03
  0.63333333  0.03333333  0.00000000  1.111111e-03
  0.63333333  0.06666667  0.00000000  1.111111e-03