&CONTROL
  calculation = 'nscf'
  prefix = 'MoS2'
  verbosity = 'high', disk_io = 'low'
  tstress = .true., tprnfor = .true.
  outdir = './tmp', pseudo_dir = '../pseudo'
/
&SYSTEM
  ibrav = 4
  celldm(1) = 6.0207596679, celldm(3) = 7.2598686942
  nat = 3, ntyp = 2, nbnd = 34
  ecutwfc = 120, ecutrho = 480
  occupations = 'fixed'
  assume_isolated = '2D'
  noncolin = .true., lspinorb = .true.
/
&ELECTRONS
  conv_thr = 1.d-13
  diago_full_acc = .true.
  diago_thr_init = 1.d-13
/
ATOMIC_SPECIES
  Mo 95.942  Mo.upf
  S  32.065  S.upf
ATOMIC_POSITIONS {crystal}
  Mo 0.3333333333  0.6666666667   0.0000000000
  S  0.6666666667  0.3333333333   0.0675804814
  S  0.6666666667  0.3333333333  -0.0675804814
K_POINTS {crystal}
  324
  0.00000000  0.00000000  0.00000000  3.086420e-03
  0.00000000  0.05555556  0.00000000  3.086420e-03
  0.00000000  0.11111111  0.00000000  3.086420e-03
  0.00000000  0.16666667  0.00000000  3.086420e-03
  0.00000000  0.22222222  0.00000000  3.086420e-03
  0.00000000  0.27777778  0.00000000  3.086420e-03
  0.00000000  0.33333333  0.00000000  3.086420e-03
  0.00000000  0.38888889  0.00000000  3.086420e-03
  0.00000000  0.44444444  0.00000000  3.086420e-03
  0.00000000  0.50000000  0.00000000  3.086420e-03
  0.00000000  0.55555556  0.00000000  3.086420e-03
  0.00000000  0.61111111  0.00000000  3.086420e-03
  0.00000000  0.66666667  0.00000000  3.086420e-03
  0.00000000  0.72222222  0.00000000  3.086420e-03
  0.00000000  0.77777778  0.00000000  3.086420e-03
  0.00000000  0.83333333  0.00000000  3.086420e-03
  0.00000000  0.88888889  0.00000000  3.086420e-03
  0.00000000  0.94444444  0.00000000  3.086420e-03
  0.05555556  0.00000000  0.00000000  3.086420e-03
  0.05555556  0.05555556  0.00000000  3.086420e-03
  0.05555556  0.11111111  0.00000000  3.086420e-03
  0.05555556  0.16666667  0.00000000  3.086420e-03
  0.05555556  0.22222222  0.00000000  3.086420e-03
  0.05555556  0.27777778  0.00000000  3.086420e-03
  0.05555556  0.33333333  0.00000000  3.086420e-03
  0.05555556  0.38888889  0.00000000  3.086420e-03
  0.05555556  0.44444444  0.00000000  3.086420e-03
  0.05555556  0.50000000  0.00000000  3.086420e-03
  0.05555556  0.55555556  0.00000000  3.086420e-03
  0.05555556  0.61111111  0.00000000  3.086420e-03
  0.05555556  0.66666667  0.00000000  3.086420e-03
  0.05555556  0.72222222  0.00000000  3.086420e-03
  0.05555556  0.77777778  0.00000000  3.086420e-03
  0.05555556  0.83333333  0.00000000  3.086420e-03
  0.05555556  0.88888889  0.00000000  3.086420e-03
  0.05555556  0.94444444  0.00000000  3.086420e-03
  0.11111111  0.00000000  0.00000000  3.086420e-03
  0.11111111  0.05555556  0.00000000  3.086420e-03
  0.11111111  0.11111111  0.00000000  3.086420e-03
  0.11111111  0.16666667  0.00000000  3.086420e-03
  0.11111111  0.22222222  0.00000000  3.086420e-03
  0.11111111  0.27777778  0.00000000  3.086420e-03
  0.11111111  0.33333333  0.00000000  3.086420e-03
  0.11111111  0.38888889  0.00000000  3.086420e-03
  0.11111111  0.44444444  0.00000000  3.086420e-03
  0.11111111  0.50000000  0.00000000  3.086420e-03
  0.11111111  0.55555556  0.00000000  3.086420e-03
  0.11111111  0.61111111  0.00000000  3.086420e-03
  0.11111111  0.66666667  0.00000000  3.086420e-03
  0.11111111  0.72222222  0.00000000  3.086420e-03
  0.11111111  0.77777778  0.00000000  3.086420e-03
  0.11111111  0.83333333  0.00000000  3.086420e-03
  0.11111111  0.88888889  0.00000000  3.086420e-03
  0.11111111  0.94444444  0.00000000  3.086420e-03
  0.16666667  0.00000000  0.00000000  3.086420e-03
  0.16666667  0.05555556  0.00000000  3.086420e-03
  0.16666667  0.11111111  0.00000000  3.086420e-03
  0.16666667  0.16666667  0.00000000  3.086420e-03
  0.16666667  0.22222222  0.00000000  3.086420e-03
  0.16666667  0.27777778  0.00000000  3.086420e-03
  0.16666667  0.33333333  0.00000000  3.086420e-03
  0.16666667  0.38888889  0.00000000  3.086420e-03
  0.16666667  0.44444444  0.00000000  3.086420e-03
  0.16666667  0.50000000  0.00000000  3.086420e-03
  0.16666667  0.55555556  0.00000000  3.086420e-03
  0.16666667  0.61111111  0.00000000  3.086420e-03
  0.16666667  0.66666667  0.00000000  3.086420e-03
  0.16666667  0.72222222  0.00000000  3.086420e-03
  0.16666667  0.77777778  0.00000000  3.086420e-03
  0.16666667  0.83333333  0.00000000  3.086420e-03
  0.16666667  0.88888889  0.00000000  3.086420e-03
  0.16666667  0.94444444  0.00000000  3.086420e-03
  0.22222222  0.00000000  0.00000000  3.086420e-03
  0.22222222  0.05555556  0.00000000  3.086420e-03
  0.22222222  0.11111111  0.00000000  3.086420e-03
  0.22222222  0.16666667  0.00000000  3.086420e-03
  0.22222222  0.22222222  0.00000000  3.086420e-03
  0.22222222  0.27777778  0.00000000  3.086420e-03
  0.22222222  0.33333333  0.00000000  3.086420e-03
  0.22222222  0.38888889  0.00000000  3.086420e-03
  0.22222222  0.44444444  0.00000000  3.086420e-03
  0.22222222  0.50000000  0.00000000  3.086420e-03
  0.22222222  0.55555556  0.00000000  3.086420e-03
  0.22222222  0.61111111  0.00000000  3.086420e-03
  0.22222222  0.66666667  0.00000000  3.086420e-03
  0.22222222  0.72222222  0.00000000  3.086420e-03
  0.22222222  0.77777778  0.00000000  3.086420e-03
  0.22222222  0.83333333  0.00000000  3.086420e-03
  0.22222222  0.88888889  0.00000000  3.086420e-03
  0.22222222  0.94444444  0.00000000  3.086420e-03
  0.27777778  0.00000000  0.00000000  3.086420e-03
  0.27777778  0.05555556  0.00000000  3.086420e-03
  0.27777778  0.11111111  0.00000000  3.086420e-03
  0.27777778  0.16666667  0.00000000  3.086420e-03
  0.27777778  0.22222222  0.00000000  3.086420e-03
  0.27777778  0.27777778  0.00000000  3.086420e-03
  0.27777778  0.33333333  0.00000000  3.086420e-03
  0.27777778  0.38888889  0.00000000  3.086420e-03
  0.27777778  0.44444444  0.00000000  3.086420e-03
  0.27777778  0.50000000  0.00000000  3.086420e-03
  0.27777778  0.55555556  0.00000000  3.086420e-03
  0.27777778  0.61111111  0.00000000  3.086420e-03
  0.27777778  0.66666667  0.00000000  3.086420e-03
  0.27777778  0.72222222  0.00000000  3.086420e-03
  0.27777778  0.77777778  0.00000000  3.086420e-03
  0.27777778  0.83333333  0.00000000  3.086420e-03
  0.27777778  0.88888889  0.00000000  3.086420e-03
  0.27777778  0.94444444  0.00000000  3.086420e-03
  0.33333333  0.00000000  0.00000000  3.086420e-03
  0.33333333  0.05555556  0.00000000  3.086420e-03
  0.33333333  0.11111111  0.00000000  3.086420e-03
  0.33333333  0.16666667  0.00000000  3.086420e-03
  0.33333333  0.22222222  0.00000000  3.086420e-03
  0.33333333  0.27777778  0.00000000  3.086420e-03
  0.33333333  0.33333333  0.00000000  3.086420e-03
  0.33333333  0.38888889  0.00000000  3.086420e-03
  0.33333333  0.44444444  0.00000000  3.086420e-03
  0.33333333  0.50000000  0.00000000  3.086420e-03
  0.33333333  0.55555556  0.00000000  3.086420e-03
  0.33333333  0.61111111  0.00000000  3.086420e-03
  0.33333333  0.66666667  0.00000000  3.086420e-03
  0.33333333  0.72222222  0.00000000  3.086420e-03
  0.33333333  0.77777778  0.00000000  3.086420e-03
  0.33333333  0.83333333  0.00000000  3.086420e-03
  0.33333333  0.88888889  0.00000000  3.086420e-03
  0.33333333  0.94444444  0.00000000  3.086420e-03
  0.38888889  0.00000000  0.00000000  3.086420e-03
  0.38888889  0.05555556  0.00000000  3.086420e-03
  0.38888889  0.11111111  0.00000000  3.086420e-03
  0.38888889  0.16666667  0.00000000  3.086420e-03
  0.38888889  0.22222222  0.00000000  3.086420e-03
  0.38888889  0.27777778  0.00000000  3.086420e-03
  0.38888889  0.33333333  0.00000000  3.086420e-03
  0.38888889  0.38888889  0.00000000  3.086420e-03
  0.38888889  0.44444444  0.00000000  3.086420e-03
  0.38888889  0.50000000  0.00000000  3.086420e-03
  0.38888889  0.55555556  0.00000000  3.086420e-03
  0.38888889  0.61111111  0.00000000  3.086420e-03
  0.38888889  0.66666667  0.00000000  3.086420e-03
  0.38888889  0.72222222  0.00000000  3.086420e-03
  0.38888889  0.77777778  0.00000000  3.086420e-03
  0.38888889  0.83333333  0.00000000  3.086420e-03
  0.38888889  0.88888889  0.00000000  3.086420e-03
  0.38888889  0.94444444  0.00000000  3.086420e-03
  0.44444444  0.00000000  0.00000000  3.086420e-03
  0.44444444  0.05555556  0.00000000  3.086420e-03
  0.44444444  0.11111111  0.00000000  3.086420e-03
  0.44444444  0.16666667  0.00000000  3.086420e-03
  0.44444444  0.22222222  0.00000000  3.086420e-03
  0.44444444  0.27777778  0.00000000  3.086420e-03
  0.44444444  0.33333333  0.00000000  3.086420e-03
  0.44444444  0.38888889  0.00000000  3.086420e-03
  0.44444444  0.44444444  0.00000000  3.086420e-03
  0.44444444  0.50000000  0.00000000  3.086420e-03
  0.44444444  0.55555556  0.00000000  3.086420e-03
  0.44444444  0.61111111  0.00000000  3.086420e-03
  0.44444444  0.66666667  0.00000000  3.086420e-03
  0.44444444  0.72222222  0.00000000  3.086420e-03
  0.44444444  0.77777778  0.00000000  3.086420e-03
  0.44444444  0.83333333  0.00000000  3.086420e-03
  0.44444444  0.88888889  0.00000000  3.086420e-03
  0.44444444  0.94444444  0.00000000  3.086420e-03
  0.50000000  0.00000000  0.00000000  3.086420e-03
  0.50000000  0.05555556  0.00000000  3.086420e-03
  0.50000000  0.11111111  0.00000000  3.086420e-03
  0.50000000  0.16666667  0.00000000  3.086420e-03
  0.50000000  0.22222222  0.00000000  3.086420e-03
  0.50000000  0.27777778  0.00000000  3.086420e-03
  0.50000000  0.33333333  0.00000000  3.086420e-03
  0.50000000  0.38888889  0.00000000  3.086420e-03
  0.50000000  0.44444444  0.00000000  3.086420e-03
  0.50000000  0.50000000  0.00000000  3.086420e-03
  0.50000000  0.55555556  0.00000000  3.086420e-03
  0.50000000  0.61111111  0.00000000  3.086420e-03
  0.50000000  0.66666667  0.00000000  3.086420e-03
  0.50000000  0.72222222  0.00000000  3.086420e-03
  0.50000000  0.77777778  0.00000000  3.086420e-03
  0.50000000  0.83333333  0.00000000  3.086420e-03
  0.50000000  0.88888889  0.00000000  3.086420e-03
  0.50000000  0.94444444  0.00000000  3.086420e-03
  0.55555556  0.00000000  0.00000000  3.086420e-03
  0.55555556  0.05555556  0.00000000  3.086420e-03
  0.55555556  0.11111111  0.00000000  3.086420e-03
  0.55555556  0.16666667  0.00000000  3.086420e-03
  0.55555556  0.22222222  0.00000000  3.086420e-03
  0.55555556  0.27777778  0.00000000  3.086420e-03
  0.55555556  0.33333333  0.00000000  3.086420e-03
  0.55555556  0.38888889  0.00000000  3.086420e-03
  0.55555556  0.44444444  0.00000000  3.086420e-03
  0.55555556  0.50000000  0.00000000  3.086420e-03
  0.55555556  0.55555556  0.00000000  3.086420e-03
  0.55555556  0.61111111  0.00000000  3.086420e-03
  0.55555556  0.66666667  0.00000000  3.086420e-03
  0.55555556  0.72222222  0.00000000  3.086420e-03
  0.55555556  0.77777778  0.00000000  3.086420e-03
  0.55555556  0.83333333  0.00000000  3.086420e-03
  0.55555556  0.88888889  0.00000000  3.086420e-03
  0.55555556  0.94444444  0.00000000  3.086420e-03
  0.61111111  0.00000000  0.00000000  3.086420e-03
  0.61111111  0.05555556  0.00000000  3.086420e-03
  0.61111111  0.11111111  0.00000000  3.086420e-03
  0.61111111  0.16666667  0.00000000  3.086420e-03
  0.61111111  0.22222222  0.00000000  3.086420e-03
  0.61111111  0.27777778  0.00000000  3.086420e-03
  0.61111111  0.33333333  0.00000000  3.086420e-03
  0.61111111  0.38888889  0.00000000  3.086420e-03
  0.61111111  0.44444444  0.00000000  3.086420e-03
  0.61111111  0.50000000  0.00000000  3.086420e-03
  0.61111111  0.55555556  0.00000000  3.086420e-03
  0.61111111  0.61111111  0.00000000  3.086420e-03
  0.61111111  0.66666667  0.00000000  3.086420e-03
  0.61111111  0.72222222  0.00000000  3.086420e-03
  0.61111111  0.77777778  0.00000000  3.086420e-03
  0.61111111  0.83333333  0.00000000  3.086420e-03
  0.61111111  0.88888889  0.00000000  3.086420e-03
  0.61111111  0.94444444  0.00000000  3.086420e-03
  0.66666667  0.00000000  0.00000000  3.086420e-03
  0.66666667  0.05555556  0.00000000  3.086420e-03
  0.66666667  0.11111111  0.00000000  3.086420e-03
  0.66666667  0.16666667  0.00000000  3.086420e-03
  0.66666667  0.22222222  0.00000000  3.086420e-03
  0.66666667  0.27777778  0.00000000  3.086420e-03
  0.66666667  0.33333333  0.00000000  3.086420e-03
  0.66666667  0.38888889  0.00000000  3.086420e-03
  0.66666667  0.44444444  0.00000000  3.086420e-03
  0.66666667  0.50000000  0.00000000  3.086420e-03
  0.66666667  0.55555556  0.00000000  3.086420e-03
  0.66666667  0.61111111  0.00000000  3.086420e-03
  0.66666667  0.66666667  0.00000000  3.086420e-03
  0.66666667  0.72222222  0.00000000  3.086420e-03
  0.66666667  0.77777778  0.00000000  3.086420e-03
  0.66666667  0.83333333  0.00000000  3.086420e-03
  0.66666667  0.88888889  0.00000000  3.086420e-03
  0.66666667  0.94444444  0.00000000  3.086420e-03
  0.72222222  0.00000000  0.00000000  3.086420e-03
  0.72222222  0.05555556  0.00000000  3.086420e-03
  0.72222222  0.11111111  0.00000000  3.086420e-03
  0.72222222  0.16666667  0.00000000  3.086420e-03
  0.72222222  0.22222222  0.00000000  3.086420e-03
  0.72222222  0.27777778  0.00000000  3.086420e-03
  0.72222222  0.33333333  0.00000000  3.086420e-03
  0.72222222  0.38888889  0.00000000  3.086420e-03
  0.72222222  0.44444444  0.00000000  3.086420e-03
  0.72222222  0.50000000  0.00000000  3.086420e-03
  0.72222222  0.55555556  0.00000000  3.086420e-03
  0.72222222  0.61111111  0.00000000  3.086420e-03
  0.72222222  0.66666667  0.00000000  3.086420e-03
  0.72222222  0.72222222  0.00000000  3.086420e-03
  0.72222222  0.77777778  0.00000000  3.086420e-03
  0.72222222  0.83333333  0.00000000  3.086420e-03
  0.72222222  0.88888889  0.00000000  3.086420e-03
  0.72222222  0.94444444  0.00000000  3.086420e-03
  0.77777778  0.00000000  0.00000000  3.086420e-03
  0.77777778  0.05555556  0.00000000  3.086420e-03
  0.77777778  0.11111111  0.00000000  3.086420e-03
  0.77777778  0.16666667  0.00000000  3.086420e-03
  0.77777778  0.22222222  0.00000000  3.086420e-03
  0.77777778  0.27777778  0.00000000  3.086420e-03
  0.77777778  0.33333333  0.00000000  3.086420e-03
  0.77777778  0.38888889  0.00000000  3.086420e-03
  0.77777778  0.44444444  0.00000000  3.086420e-03
  0.77777778  0.50000000  0.00000000  3.086420e-03
  0.77777778  0.55555556  0.00000000  3.086420e-03
  0.77777778  0.61111111  0.00000000  3.086420e-03
  0.77777778  0.66666667  0.00000000  3.086420e-03
  0.77777778  0.72222222  0.00000000  3.086420e-03
  0.77777778  0.77777778  0.00000000  3.086420e-03
  0.77777778  0.83333333  0.00000000  3.086420e-03
  0.77777778  0.88888889  0.00000000  3.086420e-03
  0.77777778  0.94444444  0.00000000  3.086420e-03
  0.83333333  0.00000000  0.00000000  3.086420e-03
  0.83333333  0.05555556  0.00000000  3.086420e-03
  0.83333333  0.11111111  0.00000000  3.086420e-03
  0.83333333  0.16666667  0.00000000  3.086420e-03
  0.83333333  0.22222222  0.00000000  3.086420e-03
  0.83333333  0.27777778  0.00000000  3.086420e-03
  0.83333333  0.33333333  0.00000000  3.086420e-03
  0.83333333  0.38888889  0.00000000  3.086420e-03
  0.83333333  0.44444444  0.00000000  3.086420e-03
  0.83333333  0.50000000  0.00000000  3.086420e-03
  0.83333333  0.55555556  0.00000000  3.086420e-03
  0.83333333  0.61111111  0.00000000  3.086420e-03
  0.83333333  0.66666667  0.00000000  3.086420e-03
  0.83333333  0.72222222  0.00000000  3.086420e-03
  0.83333333  0.77777778  0.00000000  3.086420e-03
  0.83333333  0.83333333  0.00000000  3.086420e-03
  0.83333333  0.88888889  0.00000000  3.086420e-03
  0.83333333  0.94444444  0.00000000  3.086420e-03
  0.88888889  0.00000000  0.00000000  3.086420e-03
  0.88888889  0.05555556  0.00000000  3.086420e-03
  0.88888889  0.11111111  0.00000000  3.086420e-03
  0.88888889  0.16666667  0.00000000  3.086420e-03
  0.88888889  0.22222222  0.00000000  3.086420e-03
  0.88888889  0.27777778  0.00000000  3.086420e-03
  0.88888889  0.33333333  0.00000000  3.086420e-03
  0.88888889  0.38888889  0.00000000  3.086420e-03
  0.88888889  0.44444444  0.00000000  3.086420e-03
  0.88888889  0.50000000  0.00000000  3.086420e-03
  0.88888889  0.55555556  0.00000000  3.086420e-03
  0.88888889  0.61111111  0.00000000  3.086420e-03
  0.88888889  0.66666667  0.00000000  3.086420e-03
  0.88888889  0.72222222  0.00000000  3.086420e-03
  0.88888889  0.77777778  0.00000000  3.086420e-03
  0.88888889  0.83333333  0.00000000  3.086420e-03
  0.88888889  0.88888889  0.00000000  3.086420e-03
  0.88888889  0.94444444  0.00000000  3.086420e-03
  0.94444444  0.00000000  0.00000000  3.086420e-03
  0.94444444  0.05555556  0.00000000  3.086420e-03
  0.94444444  0.11111111  0.00000000  3.086420e-03
  0.94444444  0.16666667  0.00000000  3.086420e-03
  0.94444444  0.22222222  0.00000000  3.086420e-03
  0.94444444  0.27777778  0.00000000  3.086420e-03
  0.94444444  0.33333333  0.00000000  3.086420e-03
  0.94444444  0.38888889  0.00000000  3.086420e-03
  0.94444444  0.44444444  0.00000000  3.086420e-03
  0.94444444  0.50000000  0.00000000  3.086420e-03
  0.94444444  0.55555556  0.00000000  3.086420e-03
  0.94444444  0.61111111  0.00000000  3.086420e-03
  0.94444444  0.66666667  0.00000000  3.086420e-03
  0.94444444  0.72222222  0.00000000  3.086420e-03
  0.94444444  0.77777778  0.00000000  3.086420e-03
  0.94444444  0.83333333  0.00000000  3.086420e-03
  0.94444444  0.88888889  0.00000000  3.086420e-03
  0.94444444  0.94444444  0.00000000  3.086420e-03
