&input
  fildyn  = '../phonon/dyn'
  flfrc   = 'ifc'
  zasr    = 'simple'
  loto_2d = .true.
/
