#     iq     qx     qy     qz     ordering_branch     ordering_frequency
    1  0.000000  0.000000  0.000000
       1       2       3       4       5       6
      0.0000      0.0000      0.0000    876.2017   1538.2459   1538.2459
    2  0.000000  0.007698  0.000000
       1       2       3       4       5       6
      0.1758     14.6114     22.7742    876.1683   1538.5372   1539.0337
    3  0.000000  0.015396  0.000000
       1       2       3       4       5       6
      0.2114     29.1925     45.5130    876.0682   1539.3816   1541.3452
    4  0.000000  0.023094  0.000000
       1       2       3       4       5       6
      0.8543     43.7151     68.1843    875.9012   1540.6936   1545.0292
    5  0.000000  0.030792  0.000000
       1       2       3       4       5       6
      1.6902     58.1555     90.7624    875.6671   1542.3409   1549.8508
    6  0.000000  0.038490  0.000000
       1       2       3       4       5       6
      2.7528     72.4962    113.2303    875.3656   1544.1578   1555.5133
    7  0.000000  0.046188  0.000000
       1       2       3       4       5       6
      4.0444     86.7265    135.5808    874.9965   1545.9620   1561.6864
    8  0.000000  0.053886  0.000000
       1       2       3       4       5       6
      5.5639    100.8430    157.8162    874.5592   1547.5722   1568.0345
    9  0.000000  0.061584  0.000000
       1       2       3       4       5       6
      7.3099    114.8486    179.9470    874.0532   1548.8245   1574.2437
   10  0.000000  0.069282  0.000000
       1       2       3       4       5       6
      9.2806    128.7512    201.9899    873.4778   1549.5861   1580.0449
   11  0.000000  0.076980  0.000000
       1       2       3       4       5       6
     11.4746    142.5607    223.9641    872.8324   1549.7654   1585.2301
   12  0.000000  0.084678  0.000000
       1       2       3       4       5       6
     13.8907    156.2869    245.8886    872.1160   1549.3165   1589.6620
   13  0.000000  0.092376  0.000000
       1       2       3       4       5       6
     16.5282    169.9367    267.7782    871.3277   1548.2392   1593.2761
   14  0.000000  0.100074  0.000000
       1       2       3       4       5       6
     19.3866    183.5119    289.6419    870.4665   1546.5749   1596.0761
   15  0.000000  0.107772  0.000000
       1       2       3       4       5       6
     22.4659    197.0082    311.4806    869.5313   1544.3981   1598.1232
   16  0.000000  0.115470  0.000000
       1       2       3       4       5       6
     25.7663    210.4154    333.2874    868.5207   1541.8052   1599.5222
   17  0.000000  0.123168  0.000000
       1       2       3       4       5       6
     29.2883    223.7180    355.0477    867.4336   1538.9030   1600.4042
   18  0.000000  0.130866  0.000000
       1       2       3       4       5       6
     33.0323    236.8969    376.7414    866.2684   1535.7963   1600.9092
   19  0.000000  0.138564  0.000000
       1       2       3       4       5       6
     36.9985    249.9315    398.3453    865.0237   1532.5782   1601.1704
   20  0.000000  0.146262  0.000000
       1       2       3       4       5       6
     41.1874    262.8021    419.8354    863.6978   1529.3221   1601.3009
   21  0.000000  0.153960  0.000000
       1       2       3       4       5       6
     45.5988    275.4912    441.1898    862.2891   1526.0776   1601.3845
   22  0.000000  0.161658  0.000000
       1       2       3       4       5       6
     50.2322    287.9854    462.3902    860.7956   1522.8697   1601.4716
   23  0.000000  0.169356  0.000000
       1       2       3       4       5       6
     55.0870    300.2753    483.4241    859.2155   1519.7012   1601.5789
   24  0.000000  0.177054  0.000000
       1       2       3       4       5       6
     60.1621    312.3563    504.2845    857.5467   1516.5577   1601.6939
   25  0.000000  0.184752  0.000000
       1       2       3       4       5       6
     65.4558    324.2270    524.9702    855.7869   1513.4138   1601.7816
   26  0.000000  0.192450  0.000000
       1       2       3       4       5       6
     70.9665    335.8887    545.4845    853.9338   1510.2405   1601.7930
   27  0.000000  0.200148  0.000000
       1       2       3       4       5       6
     76.6921    347.3440    565.8334    851.9849   1507.0112   1601.6749
   28  0.000000  0.207846  0.000000
       1       2       3       4       5       6
     82.6302    358.5952    586.0243    849.9376   1503.7066   1601.3769
   29  0.000000  0.215544  0.000000
       1       2       3       4       5       6
     88.7786    369.6433    606.0639    847.7891   1500.3183   1600.8586
   30  0.000000  0.223242  0.000000
       1       2       3       4       5       6
     95.1346    380.4872    625.9567    845.5365   1496.8489   1600.0928
   31  0.000000  0.230940  0.000000
       1       2       3       4       5       6
    101.6958    391.1235    645.7038    843.1768   1493.3116   1599.0671
   32  0.000000  0.238638  0.000000
       1       2       3       4       5       6
    108.4593    401.5466    665.3030    840.7070   1489.7274   1597.7826
   33  0.000000  0.246336  0.000000
       1       2       3       4       5       6
    115.4227    411.7493    684.7487    838.1237   1486.1212   1596.2512
   34  0.000000  0.254034  0.000000
       1       2       3       4       5       6
    122.5828    421.7240    704.0329    835.4238   1482.5185   1594.4916
   35  0.000000  0.261732  0.000000
       1       2       3       4       5       6
    129.9369    431.4635    723.1464    832.6038   1478.9416   1592.5245
   36  0.000000  0.269430  0.000000
       1       2       3       4       5       6
    137.4816    440.9619    742.0798    829.6603   1475.4070   1590.3689
   37  0.000000  0.277128  0.000000
       1       2       3       4       5       6
    145.2135    450.2151    760.8252    826.5899   1471.9245   1588.0387
   38  0.000000  0.284826  0.000000
       1       2       3       4       5       6
    153.1287    459.2213    779.3767    823.3890   1468.4967   1585.5409
   39  0.000000  0.292524  0.000000
       1       2       3       4       5       6
    161.2230    467.9809    797.7316    820.0542   1465.1205   1582.8753
   40  0.000000  0.300222  0.000000
       1       2       3       4       5       6
    169.4916    476.4956    815.8894    816.5820   1461.7893   1580.0349
   41  0.000000  0.307920  0.000000
       1       2       4       3       5       6
    177.9292    484.7683    833.8525    812.9689   1458.4950   1577.0081
   42  0.000000  0.315618  0.000000
       1       2       4       3       5       6
    186.5302    492.8019    851.6245    809.2117   1455.2306   1573.7809
   43  0.000000  0.323316  0.000000
       1       2       4       3       5       6
    195.2883    500.5988    869.2099    805.3070   1451.9923   1570.3396
   44  0.000000  0.331014  0.000000
       1       2       4       3       5       6
    204.1965    508.1605    886.6125    801.2518   1448.7802   1566.6725
   45  0.000000  0.338712  0.000000
       1       2       4       3       5       6
    213.2476    515.4868    903.8349    797.0434   1445.5990   1562.7724
   46  0.000000  0.346410  0.000000
       1       2       4       3       5       6
    222.4335    522.5768    920.8776    792.6791   1442.4575   1558.6365
   47  0.000000  0.354108  0.000000
       1       2       4       3       5       6
    231.7459    529.4282    937.7389    788.1567   1439.3667   1554.2666
   48  0.000000  0.361806  0.000000
       1       2       4       3       5       6
    241.1757    536.0385    954.4149    783.4744   1436.3393   1549.6684
   49  0.000000  0.369504  0.000000
       1       2       4       3       5       6
    250.7137    542.4053    970.9001    778.6310   1433.3870   1544.8500
   50  0.000000  0.377202  0.000000
       1       2       4       3       5       6
    260.3497    548.5266    987.1883    773.6256   1430.5199   1539.8204
   51  0.000000  0.384900  0.000000
       1       2       4       3       5       6
    270.0732    554.4016   1003.2729    768.4582   1427.7454   1534.5879
   52  0.000000  0.392598  0.000000
       1       2       4       3       5       6
    279.8731    560.0307   1019.1483    763.1296   1425.0677   1529.1588
   53  0.000000  0.400296  0.000000
       1       2       4       3       5       6
    289.7375    565.4151   1034.8101    757.6413   1422.4883   1523.5368
   54  0.000000  0.407994  0.000000
       1       2       4       3       5       6
    299.6538    570.5569   1050.2558    751.9959   1420.0070   1517.7224
   55  0.000000  0.415692  0.000000
       1       2       4       3       5       6
    309.6085    575.4586   1065.4844    746.1972   1417.6222   1511.7136
   56  0.000000  0.423390  0.000000
       1       2       4       3       5       6
    319.5870    580.1226   1080.4966    740.2505   1415.3327   1505.5064
   57  0.000000  0.431088  0.000000
       1       2       4       3       5       6
    329.5732    584.5510   1095.2941    734.1625   1413.1381   1499.0958
   58  0.000000  0.438786  0.000000
       1       2       4       3       5       6
    339.5499    588.7452   1109.8791    727.9417   1411.0395   1492.4766
   59  0.000000  0.446484  0.000000
       1       2       4       3       5       6
    349.4976    592.7060   1124.2536    721.5990   1409.0395   1485.6442
   60  0.000000  0.454182  0.000000
       1       2       4       3       5       6
    359.3947    596.4336   1138.4189    715.1479   1407.1416   1478.5956
   61  0.000000  0.461880  0.000000
       1       2       4       3       5       6
    369.2168    599.9281   1152.3754    708.6049   1405.3503   1471.3293
   62  0.000000  0.469578  0.000000
       1       2       4       3       5       6
    378.9361    603.1896   1166.1224    701.9903   1403.6697   1463.8451
   63  0.000000  0.477276  0.000000
       1       2       4       3       5       6
    388.5205    606.2182   1179.6583    695.3291   1402.1031   1456.1442
   64  0.000000  0.484974  0.000000
       1       2       4       3       5       6
    397.9327    609.0151   1192.9807    688.6520   1400.6524   1448.2284
   65  0.000000  0.492672  0.000000
       1       2       4       3       5       6
    407.1289    611.5818   1206.0870    681.9963   1399.3180   1440.0996
   66  0.000000  0.500370  0.000000
       1       2       4       3       5       6
    416.0571    613.9202   1218.9745    675.4081   1398.0992   1431.7596
   67  0.000000  0.508068  0.000000
       1       2       4       3       5       6
    424.6554    616.0327   1231.6412    668.9440   1396.9943   1423.2095
   68  0.000000  0.515766  0.000000
       1       2       4       3       5       6
    432.8499    617.9214   1244.0851    662.6728   1396.0014   1414.4500
   69  0.000000  0.523464  0.000000
       1       2       4       3       5       6
    440.5519    619.5884   1256.3048    656.6787   1395.1191   1405.4816
   70  0.000000  0.531162  0.000000
       1       2       4       3       5       6
    447.6564    621.0348   1268.2982    651.0626   1394.3471   1396.3058
   71  0.000000  0.538860  0.000000
       1       2       4       3       6       5
    454.0410    622.2609   1280.0613    645.9436   1393.6862   1386.9261
   72  0.000000  0.546558  0.000000
       1       2       4       3       6       5
    459.5669    623.2665   1291.5851    641.4572   1393.1386   1377.3515
   73  0.000000  0.554256  0.000000
       1       2       4       3       6       5
    464.0852    624.0507   1302.8468    637.7501   1392.7075   1367.6051
   74  0.000000  0.561954  0.000000
       1       2       4       3       6       5
    467.4478    624.6121   1313.7782    634.9682   1392.3962   1357.7556
   75  0.000000  0.569652  0.000000
       1       2       4       3       6       5
    469.5255    624.9496   1324.0724    633.2395   1392.2080   1348.1102
   76  0.000000 -0.577350  0.000000
       1       2       4       3       6       5
    470.2288    625.0622   1330.5941    632.6527   1392.1450   1341.8047
   77  0.000000 -0.569652  0.000000
       1       2       4       3       6       5
    469.5255    624.9496   1324.0724    633.2395   1392.2080   1348.1102
   78  0.000000 -0.561954  0.000000
       1       2       4       3       6       5
    467.4478    624.6121   1313.7782    634.9682   1392.3962   1357.7556
   79  0.000000 -0.554256  0.000000
       1       2       4       3       6       5
    464.0852    624.0507   1302.8468    637.7501   1392.7075   1367.6051
   80  0.000000 -0.546558  0.000000
       1       2       4       3       6       5
    459.5669    623.2665   1291.5851    641.4572   1393.1386   1377.3515
   81  0.000000 -0.538860  0.000000
       1       2       4       3       6       5
    454.0410    622.2609   1280.0613    645.9436   1393.6862   1386.9261
   82  0.000000 -0.531162  0.000000
       1       2       4       3       5       6
    447.6564    621.0348   1268.2982    651.0626   1394.3471   1396.3058
   83  0.000000 -0.523464  0.000000
       1       2       4       3       5       6
    440.5519    619.5884   1256.3048    656.6787   1395.1191   1405.4816
   84  0.000000 -0.515766  0.000000
       1       2       4       3       5       6
    432.8499    617.9214   1244.0851    662.6728   1396.0014   1414.4500
   85  0.000000 -0.508068  0.000000
       1       2       4       3       5       6
    424.6554    616.0327   1231.6412    668.9440   1396.9943   1423.2095
   86  0.000000 -0.500370  0.000000
       1       2       4       3       5       6
    416.0571    613.9202   1218.9745    675.4081   1398.0992   1431.7596
   87  0.000000 -0.492672  0.000000
       1       2       4       3       5       6
    407.1289    611.5818   1206.0870    681.9963   1399.3180   1440.0996
   88  0.000000 -0.484974  0.000000
       1       2       4       3       5       6
    397.9327    609.0151   1192.9807    688.6520   1400.6524   1448.2284
   89  0.000000 -0.477276  0.000000
       1       2       4       3       5       6
    388.5205    606.2182   1179.6583    695.3291   1402.1031   1456.1442
   90  0.000000 -0.469578  0.000000
       1       2       4       3       5       6
    378.9361    603.1896   1166.1224    701.9903   1403.6697   1463.8451
   91  0.000000 -0.461880  0.000000
       1       2       4       3       5       6
    369.2168    599.9281   1152.3754    708.6049   1405.3503   1471.3293
   92  0.000000 -0.454182  0.000000
       1       2       4       3       5       6
    359.3947    596.4336   1138.4189    715.1479   1407.1416   1478.5956
   93  0.000000 -0.446484  0.000000
       1       2       4       3       5       6
    349.4976    592.7060   1124.2536    721.5990   1409.0395   1485.6442
   94  0.000000 -0.438786  0.000000
       1       2       4       3       5       6
    339.5499    588.7452   1109.8791    727.9417   1411.0395   1492.4766
   95  0.000000 -0.431088  0.000000
       1       2       4       3       5       6
    329.5732    584.5510   1095.2941    734.1625   1413.1381   1499.0958
   96  0.000000 -0.423390  0.000000
       1       2       4       3       5       6
    319.5870    580.1226   1080.4966    740.2505   1415.3327   1505.5064
   97  0.000000 -0.415692  0.000000
       1       2       4       3       5       6
    309.6085    575.4586   1065.4844    746.1972   1417.6222   1511.7136
   98  0.000000 -0.407994  0.000000
       1       2       4       3       5       6
    299.6538    570.5569   1050.2558    751.9959   1420.0070   1517.7224
   99  0.000000 -0.400296  0.000000
       1       2       4       3       5       6
    289.7375    565.4151   1034.8101    757.6413   1422.4883   1523.5368
  100  0.000000 -0.392598  0.000000
       1       2       4       3       5       6
    279.8731    560.0307   1019.1483    763.1296   1425.0677   1529.1588
  101  0.000000 -0.384900  0.000000
       1       2       4       3       5       6
    270.0732    554.4016   1003.2729    768.4582   1427.7454   1534.5879
  102  0.000000 -0.377202  0.000000
       1       2       4       3       5       6
    260.3497    548.5266    987.1883    773.6256   1430.5199   1539.8204
  103  0.000000 -0.369504  0.000000
       1       2       4       3       5       6
    250.7137    542.4053    970.9001    778.6310   1433.3870   1544.8500
  104  0.000000 -0.361806  0.000000
       1       2       4       3       5       6
    241.1757    536.0385    954.4149    783.4744   1436.3393   1549.6684
  105  0.000000 -0.354108  0.000000
       1       2       4       3       5       6
    231.7459    529.4282    937.7389    788.1567   1439.3667   1554.2666
  106  0.000000 -0.346410  0.000000
       1       2       4       3       5       6
    222.4335    522.5768    920.8776    792.6791   1442.4575   1558.6365
  107  0.000000 -0.338712  0.000000
       1       2       4       3       5       6
    213.2476    515.4868    903.8349    797.0434   1445.5990   1562.7724
  108  0.000000 -0.331014  0.000000
       1       2       4       3       5       6
    204.1965    508.1605    886.6125    801.2518   1448.7802   1566.6725
  109  0.000000 -0.323316  0.000000
       1       2       4       3       5       6
    195.2883    500.5988    869.2099    805.3070   1451.9923   1570.3396
  110  0.000000 -0.315618  0.000000
       1       2       4       3       5       6
    186.5302    492.8019    851.6245    809.2117   1455.2306   1573.7809
  111  0.000000 -0.307920  0.000000
       1       2       4       3       5       6
    177.9292    484.7683    833.8525    812.9689   1458.4950   1577.0081
  112  0.000000 -0.300222  0.000000
       1       2       3       4       5       6
    169.4916    476.4956    815.8894    816.5820   1461.7893   1580.0349
  113  0.000000 -0.292524  0.000000
       1       2       3       4       5       6
    161.2230    467.9809    797.7316    820.0542   1465.1205   1582.8753
  114  0.000000 -0.284826  0.000000
       1       2       3       4       5       6
    153.1287    459.2213    779.3767    823.3890   1468.4967   1585.5409
  115  0.000000 -0.277128  0.000000
       1       2       3       4       5       6
    145.2135    450.2151    760.8252    826.5899   1471.9245   1588.0387
  116  0.000000 -0.269430  0.000000
       1       2       3       4       5       6
    137.4816    440.9619    742.0798    829.6603   1475.4070   1590.3689
  117  0.000000 -0.261732  0.000000
       1       2       3       4       5       6
    129.9369    431.4635    723.1464    832.6038   1478.9416   1592.5245
  118  0.000000 -0.254034  0.000000
       1       2       3       4       5       6
    122.5828    421.7240    704.0329    835.4238   1482.5185   1594.4916
  119  0.000000 -0.246336  0.000000
       1       2       3       4       5       6
    115.4227    411.7493    684.7487    838.1237   1486.1212   1596.2512
  120  0.000000 -0.238638  0.000000
       1       2       3       4       5       6
    108.4593    401.5466    665.3030    840.7070   1489.7274   1597.7826
  121  0.000000 -0.230940  0.000000
       1       2       3       4       5       6
    101.6958    391.1235    645.7038    843.1768   1493.3116   1599.0671
  122  0.000000 -0.223242  0.000000
       1       2       3       4       5       6
     95.1346    380.4872    625.9567    845.5365   1496.8489   1600.0928
  123  0.000000 -0.215544  0.000000
       1       2       3       4       5       6
     88.7786    369.6433    606.0639    847.7891   1500.3183   1600.8586
  124  0.000000 -0.207846  0.000000
       1       2       3       4       5       6
     82.6302    358.5952    586.0243    849.9376   1503.7066   1601.3769
  125  0.000000 -0.200148  0.000000
       1       2       3       4       5       6
     76.6921    347.3440    565.8334    851.9849   1507.0112   1601.6749
  126  0.000000 -0.192450  0.000000
       1       2       3       4       5       6
     70.9665    335.8887    545.4845    853.9338   1510.2405   1601.7930
  127  0.000000 -0.184752  0.000000
       1       2       3       4       5       6
     65.4558    324.2270    524.9702    855.7869   1513.4138   1601.7816
  128  0.000000 -0.177054  0.000000
       1       2       3       4       5       6
     60.1621    312.3563    504.2845    857.5467   1516.5577   1601.6939
  129  0.000000 -0.169356  0.000000
       1       2       3       4       5       6
     55.0870    300.2753    483.4241    859.2155   1519.7012   1601.5789
  130  0.000000 -0.161658  0.000000
       1       2       3       4       5       6
     50.2322    287.9854    462.3902    860.7956   1522.8697   1601.4716
  131  0.000000 -0.153960  0.000000
       1       2       3       4       5       6
     45.5988    275.4912    441.1898    862.2891   1526.0776   1601.3845
  132  0.000000 -0.146262  0.000000
       1       2       3       4       5       6
     41.1874    262.8021    419.8354    863.6978   1529.3221   1601.3009
  133  0.000000 -0.138564  0.000000
       1       2       3       4       5       6
     36.9985    249.9315    398.3453    865.0237   1532.5782   1601.1704
  134  0.000000 -0.130866  0.000000
       1       2       3       4       5       6
     33.0323    236.8969    376.7414    866.2684   1535.7963   1600.9092
  135  0.000000 -0.123168  0.000000
       1       2       3       4       5       6
     29.2883    223.7180    355.0477    867.4336   1538.9030   1600.4042
  136  0.000000 -0.115470  0.000000
       1       2       3       4       5       6
     25.7663    210.4154    333.2874    868.5207   1541.8052   1599.5222
  137  0.000000 -0.107772  0.000000
       1       2       3       4       5       6
     22.4659    197.0082    311.4806    869.5313   1544.3981   1598.1232
  138  0.000000 -0.100074  0.000000
       1       2       3       4       5       6
     19.3866    183.5119    289.6419    870.4665   1546.5749   1596.0761
  139  0.000000 -0.092376  0.000000
       1       2       3       4       5       6
     16.5282    169.9367    267.7782    871.3277   1548.2392   1593.2761
  140  0.000000 -0.084678  0.000000
       1       2       3       4       5       6
     13.8907    156.2869    245.8886    872.1160   1549.3165   1589.6620
  141  0.000000 -0.076980  0.000000
       1       2       3       4       5       6
     11.4746    142.5607    223.9641    872.8324   1549.7654   1585.2301
  142  0.000000 -0.069282  0.000000
       1       2       3       4       5       6
      9.2806    128.7512    201.9899    873.4778   1549.5861   1580.0449
  143  0.000000 -0.061584  0.000000
       1       2       3       4       5       6
      7.3099    114.8486    179.9470    874.0532   1548.8245   1574.2437
  144  0.000000 -0.053886  0.000000
       1       2       3       4       5       6
      5.5639    100.8430    157.8162    874.5592   1547.5722   1568.0345
  145  0.000000 -0.046188  0.000000
       1       2       3       4       5       6
      4.0444     86.7265    135.5808    874.9965   1545.9620   1561.6864
  146  0.000000 -0.038490  0.000000
       1       2       3       4       5       6
      2.7528     72.4962    113.2303    875.3656   1544.1578   1555.5133
  147  0.000000 -0.030792  0.000000
       1       2       3       4       5       6
      1.6902     58.1555     90.7624    875.6671   1542.3409   1549.8508
  148  0.000000 -0.023094  0.000000
       1       2       3       4       5       6
      0.8543     43.7151     68.1843    875.9012   1540.6936   1545.0292
  149  0.000000 -0.015396  0.000000
       1       2       3       4       5       6
      0.2114     29.1925     45.5130    876.0682   1539.3816   1541.3452
  150  0.000000 -0.007698  0.000000
       1       2       3       4       5       6
      0.1758     14.6114     22.7742    876.1683   1538.5372   1539.0337
  151  0.006667  0.003849  0.000000
       1       2       3       4       5       6
      0.1758     14.6114     22.7742    876.1683   1538.5372   1539.0337
  152  0.006667  0.011547  0.000000
       1       2       3       4       5       6
      0.0923     25.3093     39.4132    876.1016   1539.1050   1540.5832
  153  0.006667  0.019245  0.000000
       1       2       3       4       5       6
      0.6100     38.6265     60.1318    875.9680   1540.1829   1543.5800
  154  0.006667  0.026943  0.000000
       1       2       3       4       5       6
      1.3338     52.5444     81.8214    875.7674   1541.6612   1547.8299
  155  0.006667  0.034641  0.000000
       1       2       3       4       5       6
      2.2815     66.6197    103.8035    875.4997   1543.3901   1553.0659
  156  0.006667  0.042339  0.000000
       1       2       3       4       5       6
      3.4581     80.7062    125.8595    875.1644   1545.1945   1558.9731
  157  0.006667  0.050037  0.000000
       1       2       3       4       5       6
      4.8634     94.7431    147.9034    874.7612   1546.8920   1565.2175
  158  0.006667  0.057735  0.000000
       1       2       3       4       5       6
      6.4960    108.7047    169.9017    874.2895   1548.3095   1571.4735
  159  0.006667  0.065433  0.000000
       1       2       3       4       5       6
      8.3541    122.5827    191.8466    873.7488   1549.2985   1577.4496
  160  0.006667  0.073131  0.000000
       1       2       3       4       5       6
     10.4362    136.3783    213.7435    873.1384   1549.7470   1582.9077
  161  0.006667  0.080829  0.000000
       1       2       3       4       5       6
     12.7409    150.0970    235.6038    872.4575   1549.5871   1587.6764
  162  0.006667  0.088527  0.000000
       1       2       3       4       5       6
     15.2673    163.7442    257.4389    871.7052   1548.7968   1591.6562
  163  0.006667  0.096225  0.000000
       1       2       3       4       5       6
     18.0147    177.3224    279.2569    870.8805   1547.3981   1594.8188
  164  0.006667  0.103923  0.000000
       1       2       3       4       5       6
     20.9831    190.8292    301.0598    869.9823   1545.4505   1597.1988
  165  0.006667  0.111621  0.000000
       1       2       3       4       5       6
     24.1724    204.2565    322.8422    869.0094   1543.0409   1598.8814
  166  0.006667  0.119319  0.000000
       1       2       3       4       5       6
     27.5831    217.5906    344.5914    867.9605   1540.2722   1599.9864
  167  0.006667  0.127017  0.000000
       1       2       3       4       5       6
     31.2154    230.8135    366.2885    866.8343   1537.2512   1600.6511
  168  0.006667  0.134715  0.000000
       1       2       3       4       5       6
     35.0700    243.9048    387.9105    865.6294   1534.0777   1601.0131
  169  0.006667  0.142413  0.000000
       1       2       3       4       5       6
     39.1470    256.8440    409.4326    864.3441   1530.8347   1601.1958
  170  0.006667  0.150111  0.000000
       1       2       3       4       5       6
     43.4465    269.6120    430.8311    862.9768   1527.5837   1601.2975
  171  0.006667  0.157809  0.000000
       1       2       3       4       5       6
     47.9684    282.1930    452.0855    861.5257   1524.3611   1601.3845
  172  0.006667  0.165507  0.000000
       1       2       3       4       5       6
     52.7120    294.5754    473.1801    859.9889   1521.1797   1601.4888
  173  0.006667  0.173205  0.000000
       1       2       3       4       5       6
     57.6765    306.7521    494.1051    858.3644   1518.0324   1601.6110
  174  0.006667  0.180903  0.000000
       1       2       3       4       5       6
     62.8604    318.7200    514.8565    856.6501   1514.8982   1601.7252
  175  0.006667  0.188601  0.000000
       1       2       3       4       5       6
     68.2621    330.4792    535.4355    854.8437   1511.7486   1601.7877
  176  0.006667  0.196299  0.000000
       1       2       3       4       5       6
     73.8797    342.0315    555.8471    852.9427   1508.5549   1601.7460
  177  0.006667  0.203997  0.000000
       1       2       3       4       5       6
     79.7110    353.3795    576.0984    850.9446   1505.2936   1601.5470
  178  0.006667  0.211695  0.000000
       1       2       3       4       5       6
     85.7537    364.5248    596.1966    848.8467   1501.9506   1601.1445
  179  0.006667  0.219393  0.000000
       1       2       3       4       5       6
     92.0053    375.4674    616.1474    846.6461   1498.5229   1600.5046
  180  0.006667  0.227091  0.000000
       1       2       3       4       5       6
     98.4632    386.2049    635.9537    844.3400   1495.0188   1599.6075
  181  0.006667  0.234789  0.000000
       1       2       3       4       5       6
    105.1248    396.7326    655.6149    841.9253   1491.4559   1598.4481
  182  0.006667  0.242487  0.000000
       1       2       3       4       5       6
    111.9874    407.0441    675.1269    839.3988   1487.8577   1597.0338
  183  0.006667  0.250185  0.000000
       1       2       3       4       5       6
    119.0482    417.1318    694.4827    836.7572   1484.2502   1595.3806
  184  0.006667  0.257883  0.000000
       1       2       3       4       5       6
    126.3044    426.9880    713.6733    833.9972   1480.6576   1593.5091
  185  0.006667  0.265581  0.000000
       1       2       3       4       5       6
    133.7528    436.6060    732.6892    831.1155   1477.0996   1591.4399
  186  0.006667  0.273279  0.000000
       1       2       3       4       5       6
    141.3900    445.9807    751.5216    828.1086   1473.5897   1589.1899
  187  0.006667  0.280977  0.000000
       1       2       3       4       5       6
    149.2124    455.1093    770.1633    824.9730   1470.1340   1586.7700
  188  0.006667  0.288675  0.000000
       1       2       3       4       5       6
    157.2160    463.9909    788.6099    821.7051   1466.7322   1584.1836
  189  0.006667  0.296373  0.000000
       1       2       3       4       5       6
    165.3962    472.6267    806.8597    818.3017   1463.3793   1581.4271
  190  0.006667  0.304071  0.000000