&input
  fildyn = 'dyn'
  flfrc = 'ifc'
  zasr = 'simple'
  loto_2d = .true.
/
