&CONTROL
  calculation = 'scf'
  prefix      = 'MoS2'
  verbosity   = 'high'
  disk_io     = 'low'
  tstress     = .true.
  tprnfor     = .true.
  outdir      = '../tmp/'
  pseudo_dir  = '../pseudo/'
/
&SYSTEM
  ibrav       = 4
  celldm(1)   = 6.0207596679
  celldm(3)   = 7.2598686942
  nat         = 3
  ntyp        = 2
  ecutwfc     = 120
  ecutrho     = 480
  occupations = 'fixed'
  assume_isolated = '2D'
  noncolin    = .true.
  lspinorb    = .true.
/
&ELECTRONS
  conv_thr    = 1.d-13
/
ATOMIC_SPECIES
  Mo 95.942  Mo.upf
  S  32.065  S.upf
ATOMIC_POSITIONS {crystal}
  Mo 0.3333333333  0.6666666667   0.0000000000
  S  0.6666666667  0.3333333333   0.0675804814
  S  0.6666666667  0.3333333333  -0.0675804814
K_POINTS {automatic}
  18  18  1  0  0  0
