#     iq     qx     qy     qz     ordering_branch     ordering_frequency
    1  0.000000  0.000000  0.000000
       1       2       3       4       5       6
      0.0000      0.0000      0.0000    809.1919   1347.2024   1347.2024
    2  0.000000  0.007698  0.000000
       1       2       3       4       5       6
      0.1672     12.3018     20.1120    809.0996   1347.1498   1380.9815
    3  0.000000  0.015396  0.000000
       1       2       3       4       5       6
      0.1115     24.6108     40.2433    808.8247   1346.9924   1407.1693
    4  0.000000  0.023094  0.000000
       1       2       3       4       5       6
      0.5866     36.9333     60.3671    808.3728   1346.7306   1427.8595
    5  0.000000  0.030792  0.000000
       1       2       3       4       5       6
      1.2391     49.2727     80.4637    807.7534   1346.3656   1444.4246
    6  0.000000  0.038490  0.000000
       1       2       3       4       5       6
      2.0614     61.6294    100.5172    806.9785   1345.8986   1457.8111
    7  0.000000  0.046188  0.000000
       1       2       3       4       5       6
      3.0599     73.9998    120.5147    806.0629   1345.3314   1468.6998
    8  0.000000  0.053886  0.000000
       1       2       3       4       5       6
      4.2357     86.3764    140.4463    805.0226   1344.6660   1477.5983
    9  0.000000  0.061584  0.000000
       1       2       3       4       5       6
      5.5882     98.7479    160.3045    803.8746   1343.9045   1484.8963
   10  0.000000  0.069282  0.000000
       1       2       3       4       5       6
      7.1167    111.0999    180.0846    802.6356   1343.0495   1490.8998
   11  0.000000  0.076980  0.000000
       1       2       3       4       5       6
      8.8203    123.4152    199.7841    801.3215   1342.1034   1495.8524
   12  0.000000  0.084678  0.000000
       1       2       3       4       5       6
     10.6978    135.6751    219.4028    799.9466   1341.0686   1499.9498
   13  0.000000  0.092376  0.000000
       1       2       3       4       5       6
     12.7482    147.8599    238.9447    798.5228   1339.9476   1503.3491
   14  0.000000  0.100074  0.000000
       1       2       3       4       5       6
     14.9705    159.9498    258.4083    797.0595   1338.7428   1506.1751
   15  0.000000  0.107772  0.000000
       1       2       3       4       5       6
     17.3635    171.9256    277.7995    795.5632   1337.4566   1508.5263
   16  0.000000  0.115470  0.000000
       1       2       3       4       5       6
     19.9262    183.7696    297.1218    794.0372   1336.0912   1510.4778
   17  0.000000  0.123168  0.000000
       1       2       3       4       5       6
     22.6574    195.4658    316.3780    792.4823   1334.6492   1512.0854
   18  0.000000  0.130866  0.000000
       1       2       3       4       5       6
     25.5558    207.0006    335.5693    790.8966   1333.1333   1513.3884
   19  0.000000  0.138564  0.000000
       1       2       3       4       5       6
     28.6201    218.3631    354.6954    789.2758   1331.5463   1514.4128
   20  0.000000  0.146262  0.000000
       1       2       3       4       5       6
     31.8488    229.5455    373.7535    787.6145   1329.8915   1515.1740
   21  0.000000  0.153960  0.000000
       1       2       3       4       5       6
     35.2402    240.5443    392.7395    785.9058   1328.1726   1515.6796
   22  0.000000  0.161658  0.000000
       1       2       3       4       5       6
     38.7926    251.3551    411.6453    784.1425   1326.3934   1515.9315
   23  0.000000  0.169356  0.000000
       1       2       3       4       5       6
     42.5039    261.9803    430.4631    782.3174   1324.5582   1515.9286
   24  0.000000  0.177054  0.000000
       1       2       3       4       5       6
     46.3719    272.4235    449.1831    780.4240   1322.6716   1515.6683
   25  0.000000  0.184752  0.000000
       1       2       3       4       5       6
     50.3943    282.6901    467.7948    778.4566   1320.7385   1515.1483
   26  0.000000  0.192450  0.000000
       1       2       3       4       5       6
     54.5685    292.7865    486.2875    776.4107   1318.7637   1514.3673
   27  0.000000  0.200148  0.000000
       1       2       3       4       5       6
     58.8918    302.7194    504.6510    774.2832   1316.7522   1513.3264
   28  0.000000  0.207846  0.000000
       1       2       3       4       5       6
     63.3613    312.4949    522.8756    772.0721   1314.7092   1512.0288
   29  0.000000  0.215544  0.000000
       1       2       3       4       5       6
     67.9741    322.1177    540.9532    769.7772   1312.6395   1510.4805
   30  0.000000  0.223242  0.000000
       1       2       3       4       5       6
     72.7271    331.5904    558.8770    767.3990   1310.5482   1508.6894
   31  0.000000  0.230940  0.000000
       1       2       3       4       5       6
     77.6168    340.9133    576.6417    764.9390   1308.4398   1506.6653
   32  0.000000  0.238638  0.000000
       1       2       3       4       5       6
     82.6400    350.0841    594.2441    762.3993   1306.3192   1504.4193
   33  0.000000  0.246336  0.000000
       1       2       3       4       5       6
     87.7930    359.0990    611.6826    759.7825   1304.1908   1501.9627
   34  0.000000  0.254034  0.000000
       1       2       3       4       5       6
     93.0719    367.9488    628.9567    757.0909   1302.0586   1499.3068
   35  0.000000  0.261732  0.000000
       1       2       3       4       5       6
     98.4726    376.6257    646.0675    754.3270   1299.9266   1496.4621
   36  0.000000  0.269430  0.000000
       1       2       3       4       5       6
    103.9907    385.1198    663.0170    751.4927   1297.7987   1493.4376
   37  0.000000  0.277128  0.000000
       1       2       3       4       5       6
    109.6216    393.4207    679.8075    748.5896   1295.6782   1490.2407
   38  0.000000  0.284826  0.000000
       1       2       3       4       5       6
    115.3601    401.5181    696.4413    745.6187   1293.5683   1486.8767
   39  0.000000  0.292524  0.000000
       1       2       3       4       5       6
    121.2006    409.4029    712.9205    742.5807   1291.4721   1483.3503
   40  0.000000  0.300222  0.000000
       1       2       3       4       5       6
    127.1373    417.0670    729.2462    739.4758   1289.3923   1479.6632
   41  0.000000  0.307920  0.000000
       1       2       4       3       5       6
    133.1637    424.5043    745.4188    736.3041   1287.3318   1475.8163
   42  0.000000  0.315618  0.000000
       1       2       4       3       5       6
    139.2728    431.7105    761.4372    733.0657   1285.2930   1471.8093
   43  0.000000  0.323316  0.000000
       1       2       4       3       5       6
    145.4574    438.6837    777.2994    729.7609   1283.2785   1467.6416
   44  0.000000  0.331014  0.000000
       1       2       4       3       5       6
    151.7094    445.4236    793.0018    726.3903   1281.2910   1463.3123
   45  0.000000  0.338712  0.000000
       1       2       4       3       5       6
    158.0206    451.9320    808.5402    722.9551   1279.3331   1458.8206
   46  0.000000  0.346410  0.000000
       1       2       4       3       5       6
    164.3822    458.2118    823.9091    719.4574   1277.4076   1454.1664
   47  0.000000  0.354108  0.000000
       1       2       4       3       5       6
    170.7849    464.2672    839.1030    715.8998   1275.5174   1449.3502
   48  0.000000  0.361806  0.000000
       1       2       4       3       5       6
    177.2188    470.1027    854.1156    712.2860   1273.6655   1444.3732
   49  0.000000  0.369504  0.000000
       1       2       4       3       5       6
    183.6737    475.7231    868.9410    708.6207   1271.8552   1439.2377
   50  0.000000  0.377202  0.000000
       1       2       4       3       5       6
    190.1387    481.1324    883.5733    704.9095   1270.0894   1433.9463
   51  0.000000  0.384900  0.000000
       1       2       4       3       5       6
    196.6024    486.3345    898.0071    701.1589   1268.3719   1428.5032
   52  0.000000  0.392598  0.000000
       1       2       4       3       5       6
    203.0526    491.3320    912.2376    697.3761   1266.7059   1422.9123
   53  0.000000  0.400296  0.000000
       1       2       4       3       5       6
    209.4765    496.1265    926.2601    693.5695   1265.0945   1417.1781
   54  0.000000  0.407994  0.000000
       1       2       4       3       5       6
    215.8603    500.7187    940.0706    689.7481   1263.5408   1411.3056
   55  0.000000  0.415692  0.000000
       1       2       4       3       5       6
    222.1895    505.1084    953.6648    685.9216   1262.0475   1405.2999
   56  0.000000  0.423390  0.000000
       1       2       4       3       5       6
    228.4483    509.2946    967.0385    682.1007   1260.6171   1399.1666
   57  0.000000  0.431088  0.000000
       1       2       4       3       5       6
    234.6199    513.2760    980.1868    678.2968   1259.2517   1392.9114
   58  0.000000  0.438786  0.000000
       1       2       4       3       5       6
    240.6862    517.0511    993.1036    674.5222   1257.9527   1386.5412
   59  0.000000  0.446484  0.000000
       1       2       4       3       5       6
    246.6281    520.6184   1005.7815    670.7901   1256.7213   1380.0636
   60  0.000000  0.454182  0.000000
       1       2       4       3       5       6
    252.4250    523.9769   1018.2106    667.1149   1255.5582   1373.4879
   61  0.000000  0.461880  0.000000
       1       2       4       3       5       6
    258.0550    527.1258   1030.3787    663.5119   1254.4636   1366.8257
   62  0.000000  0.469578  0.000000
       1       2       4       3       5       6
    263.4951    530.0652   1042.2699    659.9977   1253.4376   1360.0913
   63  0.000000  0.477276  0.000000
       1       2       4       3       5       6
    268.7211    532.7953   1053.8642    656.5903   1252.4799   1353.3034
   64  0.000000  0.484974  0.000000
       1       2       4       3       5       6
    273.7080    535.3171   1065.1361    653.3087   1251.5902   1346.4852
   65  0.000000  0.492672  0.000000
       1       2       4       3       5       6
    278.4297    537.6318   1076.0540    650.1732   1250.7684   1339.6668
   66  0.000000  0.500370  0.000000
       1       2       4       3       5       6
    282.8598    539.7408   1086.5778    647.2053   1250.0142   1332.8867
   67  0.000000  0.508068  0.000000
       1       2       4       3       5       6
    286.9717    541.6456   1096.6569    644.4269   1249.3279   1326.1937
   68  0.000000  0.515766  0.000000
       1       2       4       3       5       6
    290.7390    543.3478   1106.2280    641.8608   1248.7097   1319.6513
   69  0.000000  0.523464  0.000000
       1       2       4       3       5       6
    294.1357    544.8484   1115.2102    639.5295   1248.1603   1313.3393
   70  0.000000  0.531162  0.000000
       1       2       4       3       5       6
    297.1373    546.1483   1123.5018    637.4550   1247.6808   1307.3597
   71  0.000000  0.538860  0.000000
       1       2       4       3       5       6
    299.7208    547.2481   1130.9762    635.6586   1247.2720   1301.8394
   72  0.000000  0.546558  0.000000
       1       2       4       3       5       6
    301.8653    548.1480   1137.4794    634.1594   1246.9354   1296.9333
   73  0.000000  0.554256  0.000000
       1       2       4       3       5       6
    303.5531    548.8481   1142.8326    632.9744   1246.6719   1292.8205
   74  0.000000  0.561954  0.000000
       1       2       4       3       5       6
    304.7695    549.3483   1146.8459    632.1174   1246.4829   1289.6926
   75  0.000000  0.569652  0.000000
       1       2       4       3       5       6
    305.5038    549.6486   1149.3412    631.5990   1246.3691   1287.7283
   76  0.000000 -0.577350  0.000000
       1       2       4       3       5       6
    305.7493    549.7487   1150.1889    631.4255   1246.3311   1287.0575
   77  0.000000 -0.569652  0.000000
       1       2       4       3       5       6
    305.5038    549.6486   1149.3412    631.5990   1246.3691   1287.7283
   78  0.000000 -0.561954  0.000000
       1       2       4       3       5       6
    304.7695    549.3483   1146.8459    632.1174   1246.4829   1289.6926
   79  0.000000 -0.554256  0.000000
       1       2       4       3       5       6
    303.5531    548.8481   1142.8326    632.9744   1246.6719   1292.8205
   80  0.000000 -0.546558  0.000000
       1       2       4       3       5       6
    301.8653    548.1480   1137.4794    634.1594   1246.9354   1296.9333
   81  0.000000 -0.538860  0.000000
       1       2       4       3       5       6
    299.7208    547.2481   1130.9762    635.6586   1247.2720   1301.8394
   82  0.000000 -0.531162  0.000000
       1       2       4       3       5       6
    297.1373    546.1483   1123.5018    637.4550   1247.6808   1307.3597
   83  0.000000 -0.523464  0.000000
       1       2       4       3       5       6
    294.1357    544.8484   1115.2102    639.5295   1248.1603   1313.3393
   84  0.000000 -0.515766  0.000000
       1       2       4       3       5       6
    290.7390    543.3478   1106.2280    641.8608   1248.7097   1319.6513
   85  0.000000 -0.508068  0.000000
       1       2       4       3       5       6
    286.9717    541.6456   1096.6569    644.4269   1249.3279   1326.1937
   86  0.000000 -0.500370  0.000000
       1       2       4       3       5       6
    282.8598    539.7408   1086.5778    647.2053   1250.0142   1332.8867
   87  0.000000 -0.492672  0.000000
       1       2       4       3       5       6
    278.4297    537.6318   1076.0540    650.1732   1250.7684   1339.6668
   88  0.000000 -0.484974  0.000000
       1       2       4       3       5       6
    273.7080    535.3171   1065.1361    653.3087   1251.5902   1346.4852
   89  0.000000 -0.477276  0.000000
       1       2       4       3       5       6
    268.7211    532.7953   1053.8642    656.5903   1252.4799   1353.3034
   90  0.000000 -0.469578  0.000000
       1       2       4       3       5       6
    263.4951    530.0652   1042.2699    659.9977   1253.4376   1360.0913
   91  0.000000 -0.461880  0.000000
       1       2       4       3       5       6
    258.0550    527.1258   1030.3787    663.5119   1254.4636   1366.8257
   92  0.000000 -0.454182  0.000000
       1       2       4       3       5       6
    252.4250    523.9769   1018.2106    667.1149   1255.5582   1373.4879
   93  0.000000 -0.446484  0.000000
       1       2       4       3       5       6
    246.6281    520.6184   1005.7815    670.7901   1256.7213   1380.0636
   94  0.000000 -0.438786  0.000000
       1       2       4       3       5       6
    240.6862    517.0511    993.1036    674.5222   1257.9527   1386.5412
   95  0.000000 -0.431088  0.000000
       1       2       4       3       5       6
    234.6199    513.2760    980.1868    678.2968   1259.2517   1392.9114
   96  0.000000 -0.423390  0.000000
       1       2       4       3       5       6
    228.4483    509.2946    967.0385    682.1007   1260.6171   1399.1666
   97  0.000000 -0.415692  0.000000
       1       2       4       3       5       6
    222.1895    505.1084    953.6648    685.9216   1262.0475   1405.2999
   98  0.000000 -0.407994  0.000000
       1       2       4       3       5       6
    215.8603    500.7187    940.0706    689.7481   1263.5408   1411.3056
   99  0.000000 -0.400296  0.000000
       1       2       4       3       5       6
    209.4765    496.1265    926.2601    693.5695   1265.0945   1417.1781
  100  0.000000 -0.392598  0.000000
       1       2       4       3       5       6
    203.0526    491.3320    912.2376    697.3761   1266.7059   1422.9123
  101  0.000000 -0.384900  0.000000
       1       2       4       3       5       6
    196.6024    486.3345    898.0071    701.1589   1268.3719   1428.5032
  102  0.000000 -0.377202  0.000000
       1       2       4       3       5       6
    190.1387    481.1324    883.5733    704.9095   1270.0894   1433.9463
  103  0.000000 -0.369504  0.000000
       1       2       4       3       5       6
    183.6737    475.7231    868.9410    708.6207   1271.8552   1439.2377
  104  0.000000 -0.361806  0.000000
       1       2       4       3       5       6
    177.2188    470.1027    854.1156    712.2860   1273.6655   1444.3732
  105  0.000000 -0.354108  0.000000
       1       2       4       3       5       6
    170.7849    464.2672    839.1030    715.8998   1275.5174   1449.3502
  106  0.000000 -0.346410  0.000000
       1       2       4       3       5       6
    164.3822    458.2118    823.9091    719.4574   1277.4076   1454.1664
  107  0.000000 -0.338712  0.000000
       1       2       4       3       5       6
    158.0206    451.9320    808.5402    722.9551   1279.3331   1458.8206
  108  0.000000 -0.331014  0.000000
       1       2       4       3       5       6
    151.7094    445.4236    793.0018    726.3903   1281.2910   1463.3123
  109  0.000000 -0.323316  0.000000
       1       2       4       3       5       6
    145.4574    438.6837    777.2994    729.7609   1283.2785   1467.6416
  110  0.000000 -0.315618  0.000000
       1       2       4       3       5       6
    139.2728    431.7105    761.4372    733.0657   1285.2930   1471.8093
  111  0.000000 -0.307920  0.000000
       1       2       4       3       5       6
    133.1637    424.5043    745.4188    736.3041   1287.3318   1475.8163
  112  0.000000 -0.300222  0.000000
       1       2       3       4       5       6
    127.1373    417.0670    729.2462    739.4758   1289.3923   1479.6632
  113  0.000000 -0.292524  0.000000
       1       2       3       4       5       6
    121.2006    409.4029    712.9205    742.5807   1291.4721   1483.3503
  114  0.000000 -0.284826  0.000000
       1       2       3       4       5       6
    115.3601    401.5181    696.4413    745.6187   1293.5683   1486.8767
  115  0.000000 -0.277128  0.000000
       1       2       3       4       5       6
    109.6216    393.4207    679.8075    748.5896   1295.6782   1490.2407
  116  0.000000 -0.269430  0.000000
       1       2       3       4       5       6
    103.9907    385.1198    663.0170    751.4927   1297.7987   1493.4376
  117  0.000000 -0.261732  0.000000
       1       2       3       4       5       6
     98.4726    376.6257    646.0675    754.3270   1299.9266   1496.4621
  118  0.000000 -0.254034  0.000000
       1       2       3       4       5       6
     93.0719    367.9488    628.9567    757.0909   1302.0586   1499.3068
  119  0.000000 -0.246336  0.000000
       1       2       3       4       5       6
     87.7930    359.0990    611.6826    759.7825   1304.1908   1501.9627
  120  0.000000 -0.238638  0.000000
       1       2       3       4       5       6
     82.6400    350.0841    594.2441    762.3993   1306.3192   1504.4193
  121  0.000000 -0.230940  0.000000
       1       2       3       4       5       6
     77.6168    340.9133    576.6417    764.9390   1308.4398   1506.6653
  122  0.000000 -0.223242  0.000000
       1       2       3       4       5       6
     72.7271    331.5904    558.8770    767.3990   1310.5482   1508.6894
  123  0.000000 -0.215544  0.000000
       1       2       3       4       5       6
     67.9741    322.1177    540.9532    769.7772   1312.6395   1510.4805
  124  0.000000 -0.207846  0.000000
       1       2       3       4       5       6
     63.3613    312.4949    522.8756    772.0721   1314.7092   1512.0288
  125  0.000000 -0.200148  0.000000
       1       2       3       4       5       6
     58.8918    302.7194    504.6510    774.2832   1316.7522   1513.3264
  126  0.000000 -0.192450  0.000000
       1       2       3       4       5       6
     54.5685    292.7865    486.2875    776.4107   1318.7637   1514.3673
  127  0.000000 -0.184752  0.000000
       1       2       3       4       5       6
     50.3943    282.6901    467.7948    778.4566   1320.7385   1515.1483
  128  0.000000 -0.177054  0.000000
       1       2       3       4       5       6
     46.3719    272.4235    449.1831    780.4240   1322.6716   1515.6683
  129  0.000000 -0.169356  0.000000
       1       2       3       4       5       6
     42.5039    261.9803    430.4631    782.3174   1324.5582   1515.9286
  130  0.000000 -0.161658  0.000000
       1       2       3       4       5       6
     38.7926    251.3551    411.6453    784.1425   1326.3934   1515.9315
  131  0.000000 -0.153960  0.000000
       1       2       3       4       5       6
     35.2402    240.5443    392.7395    785.9058   1328.1726   1515.6796
  132  0.000000 -0.146262  0.000000
       1       2       3       4       5       6
     31.8488    229.5455    373.7535    787.6145   1329.8915   1515.1740
  133  0.000000 -0.138564  0.000000
       1       2       3       4       5       6
     28.6201    218.3631    354.6954    789.2758   1331.5463   1514.4128
  134  0.000000 -0.130866  0.000000
       1       2       3       4       5       6
     25.5558    207.0006    335.5693    790.8966   1333.1333   1513.3884
  135  0.000000 -0.123168  0.000000
       1       2       3       4       5       6
     22.6574    195.4658    316.3780    792.4823   1334.6492   1512.0854
  136  0.000000 -0.115470  0.000000
       1       2       3       4       5       6
     19.9262    183.7696    297.1218    794.0372   1336.0912   1510.4778
  137  0.000000 -0.107772  0.000000
       1       2       3       4       5       6
     17.3635    171.9256    277.7995    795.5632   1337.4566   1508.5263
  138  0.000000 -0.100074  0.000000
       1       2       3       4       5       6
     14.9705    159.9498    258.4083    797.0595   1338.7428   1506.1751
  139  0.000000 -0.092376  0.000000
       1       2       3       4       5       6
     12.7482    147.8599    238.9447    798.5228   1339.9476   1503.3491
  140  0.000000 -0.084678  0.000000
       1       2       3       4       5       6
     10.6978    135.6751    219.4028    799.9466   1341.0686   1499.9498
  141  0.000000 -0.076980  0.000000
       1       2       3       4       5       6
      8.8203    123.4152    199.7841    801.3215   1342.1034   1495.8524
  142  0.000000 -0.069282  0.000000
       1       2       3       4       5       6
      7.1167    111.0999    180.0846    802.6356   1343.0495   1490.8998
  143  0.000000 -0.061584  0.000000
       1       2       3       4       5       6
      5.5882     98.7479    160.3045    803.8746   1343.9045   1484.8963
  144  0.000000 -0.053886  0.000000
       1       2       3       4       5       6
      4.2357     86.3764    140.4463    805.0226   1344.6660   1477.5983
  145  0.000000 -0.046188  0.000000
       1       2       3       4       5       6
      3.0599     73.9998    120.5147    806.0629   1345.3314   1468.6998
  146  0.000000 -0.038490  0.000000
       1       2       3       4       5       6
      2.0614     61.6294    100.5172    806.9785   1345.8986   1457.8111
  147  0.000000 -0.030792  0.000000
       1       2       3       4       5       6
      1.2391     49.2727     80.4637    807.7534   1346.3656   1444.4246
  148  0.000000 -0.023094  0.000000
       1       2       3       4       5       6
      0.5866     36.9333     60.3671    808.3728   1346.7306   1427.8595
  149  0.000000 -0.015396  0.000000
       1       2       3       4       5       6
      0.1115     24.6108     40.2433    808.8247   1346.9924   1407.1693
  150  0.000000 -0.007698  0.000000
       1       2       3       4       5       6
      0.1672     12.3018     20.1120    809.0996   1347.1498   1380.9815
  151  0.006667  0.003849  0.000000
       1       2       3       4       5       6
      0.1672     12.3017     20.1121    809.0996   1347.1498   1380.9815
  152  0.006667  0.011547  0.000000
       1       2       3       4       5       6
      0.1851     21.4102     34.7881    808.9160   1347.0449   1400.7619
  153  0.006667  0.019245  0.000000
       1       2       3       4       5       6
      0.3895     32.7058     53.1540    808.5526   1346.8357   1421.0611
  154  0.006667  0.026943  0.000000
       1       2       3       4       5       6
      0.9622     44.5423     72.4542    808.0170   1346.5227   1438.3148
  155  0.006667  0.034641  0.000000
       1       2       3       4       5       6
      1.6967     56.5978     92.0718    807.3200   1346.1071   1452.5604
  156  0.006667  0.042339  0.000000
       1       2       3       4       5       6
      2.6063     68.7681    111.8048    806.4750   1345.5905   1464.2627
  157  0.006667  0.050037  0.000000
       1       2       3       4       5       6
      3.6932     81.0051    131.5665    805.4974   1344.9745   1473.8769
  158  0.006667  0.057735  0.000000
       1       2       3       4       5       6
      4.9571     93.2784    151.3122    804.4038   1344.2614   1481.7863
  159  0.006667  0.065433  0.000000
       1       2       3       4       5       6
      6.3974    105.5634    171.0165    803.2111   1343.4534   1488.3045
  160  0.006667  0.073131  0.000000
       1       2       3       4       5       6
      8.0132    117.8375    190.6647    801.9356   1342.5528   1493.6870
  161  0.006667  0.080829  0.000000
       1       2       3       4       5       6
      9.8035    130.0782    210.2486    800.5924   1341.5622   1498.1418
  162  0.006667  0.088527  0.000000
       1       2       3       4       5       6
     11.7672    142.2633    229.7657    799.1946   1340.4841   1501.8380
  163  0.006667  0.096225  0.000000
       1       2       3       4       5       6
     13.9033    154.3709    249.2140    797.7529   1339.3208   1504.9116
  164  0.006667  0.103923  0.000000
       1       2       3       4       5       6
     16.2106    166.3799    268.5940    796.2751   1338.0749   1507.4709
  165  0.006667  0.111621  0.000000
       1       2       3       4       5       6
     18.6881    178.2705    287.9088    794.7661   1336.7486   1509.6001
  166  0.006667  0.119319  0.000000
       1       2       3       4       5       6
     21.3347    190.0252    307.1605    793.2279   1335.3444   1511.3629
  167  0.006667  0.127017  0.000000
       1       2       3       4       5       6
     24.1491    201.6282    326.3506    791.6598   1333.8650   1512.8054
  168  0.006667  0.134715  0.000000
       1       2       3       4       5       6
     27.1300    213.0668    345.4787    790.0587   1332.3131   1513.9593
  169  0.006667  0.142413  0.000000
       1       2       3       4       5       6
     30.2761    224.3317    364.5434    788.4197   1330.6920   1514.8443
  170  0.006667  0.150111  0.000000
       1       2       3       4       5       6
     33.5857    235.4148    383.5399    786.7365   1329.0048   1515.4713
  171  0.006667  0.157809  0.000000
       1       2       3       4       5       6
     37.0572    246.3141    402.4626    785.0020   1327.2555   1515.8445
  172  0.006667  0.165507  0.000000
       1       2       3       4       5       6
     40.6886    257.0274    421.3032    783.2091   1325.4482   1515.9638
  173  0.006667  0.173205  0.000000
       1       2       3       4       5       6
     44.4777    267.5576    440.0527    781.3509   1323.5873   1515.8272
  174  0.006667  0.180903  0.000000
       1       2       3       4       5       6
     48.4225    277.9091    458.7007    779.4211   1321.6776   1515.4320
  175  0.006667  0.188601  0.000000
       1       2       3       4       5       6
     52.5203    288.0877    477.2364    777.4147   1319.7237   1514.7763
  176  0.006667  0.196299  0.000000
       1       2       3       4       5       6
     56.7685    298.0999    495.6493    775.3280   1317.7308   1513.8599
  177  0.006667  0.203997  0.000000
       1       2       3       4       5       6
     61.1644    307.9520    513.9291    773.1584   1315.7038   1512.6851
  178  0.006667  0.211695  0.000000
       1       2       3       4       5       6
     65.7051    317.6493    532.0670    770.9050   1313.6477   1511.2565
  179  0.006667  0.219393  0.000000
       1       2       3       4       5       6
     70.3874    327.1956    550.0553    768.5678   1311.5674   1509.5812
  180  0.006667  0.227091  0.000000
       1       2       3       4       5       6
     75.2082    336.5928    567.8879    766.1480   1309.4679   1507.6681
  181  0.006667  0.234789  0.000000
       1       2       3       4       5       6
     80.1641    345.8387    585.5605    763.6475   1307.3537   1505.5278
  182  0.006667  0.242487  0.000000
       1       2       3       4       5       6
     85.2516    354.9304    603.0705    761.0685   1305.2294   1503.1716
  183  0.006667  0.250185  0.000000
       1       2       3       4       5       6
     90.4669    363.8616    620.4170    758.4137   1303.0994   1500.6109
  184  0.006667  0.257883  0.000000
       1       2       3       4       5       6
     95.8061    372.6245    637.6002    755.6854   1300.9676   1497.8566
  185  0.006667  0.265581  0.000000
       1       2       3       4       5       6
    101.2649    381.2100    654.6218    752.8859   1298.8382   1494.9186
  186  0.006667  0.273279  0.000000
       1       2       3       4       5       6
    106.8388    389.6070    671.4837    750.0169   1296.7144   1491.8050
  187  0.006667  0.280977  0.000000
       1       2       3       4       5       6
    112.5229    397.8056    688.1883    747.0797   1294.5997   1488.5225
  188  0.006667  0.288675  0.000000
       1       2       3       4       5       6
    118.3118    405.7960    704.7377    744.0751   1292.4972   1485.0752
  189  0.006667  0.296373  0.000000
       1       2       3       4       5       6
    124.1999    413.5696    721.1336    741.0037   1290.4099   1481.4670
  190  0.006667  0.304071  0.000000